1500
 Atoms. Timestep: 0
O 1.03588 18.2207 26.3681
H 1.84061 18.7537 26.1069
H 1.081 17.3178 25.9406
O 20.8254 13.1521 24.5215
H 21.7711 13.2851 24.2246
H 20.472 14.0068 24.9016
O 17.2151 14.7398 3.16511
H 16.5064 15.2978 2.73344
H 17.0106 13.7715 3.0215
O 3.00919 6.292 1.03767
H 3.59134 5.47938 1.01021
H 3.10767 6.74273 1.92488
O 17.4241 16.9677 24.5625
H 18.0064 16.2412 24.1977
H 17.9069 17.8416 24.5064
O 19.9762 24.9501 20.6506
H 20.7342 24.4768 21.0993
H 20.3325 25.5314 19.919
O 3.80864 13.5946 14.5892
H 3.54641 14.5466 14.747
H 4.006 13.4598 13.6182
O 1.94784 11.0954 29.074
H 2.54243 10.3285 28.8324
H 1.03347 10.9387 28.7006
O 6.37828 14.5765 8.8384
H 7.22902 14.8617 9.2799
H 5.95756 13.8409 9.36929
O 16.7659 2.38059 13.9372
H 17.2451 2.78966 13.1607
H 15.8491 2.77354 14.0077
O 5.6221 18.0087 14.2103
H 4.81912 17.4716 14.4687
H 5.34145 18.7639 13.6179
O 0.999209 20.7671 4.19095
H 1.06332 20.246 5.04201
H 28.7905 20.8709 3.93524
O 14.1955 1.4729 10.5609
H 13.8299 29.3067 10.4119
H 13.9511 1.78402 11.4793
O 18.48 1.92001 27.3169
H 18.0735 2.46797 28.048
H 18.2301 0.959818 27.4417
O 10.2414 8.62911 24.0119
H 10.4864 9.53234 24.3643
H 10.6709 7.92365 24.5757
O 16.4139 12.8979 8.94112
H 16.678 12.3722 9.74979
H 16.9344 13.7513 8.91376
O 19.0786 12.042 3.16912
H 18.7229 12.9766 3.16174
H 18.3764 11.4154 2.83099
O 13.3981 26.804 19.6575
H 13.0284 27.5766 19.1412
H 13.696 26.0909 19.0229
O 9.24188 26.5817 6.64737
H 9.79958 27.3069 6.24365
H 8.95504 25.9445 5.93204
O 27.8578 19.1001 15.3498
H 27.0615 18.4966 15.3075
H 28.0831 19.2881 16.3057
O 2.62173 12.6147 16.8861
H 2.09828 13.2922 17.4028
H 2.8756 12.9967 15.9975
O 4.76707 21.3744 4.54901
H 3.90273 21.5155 5.0317
H 4.69032 21.7293 3.61726
O 10.089 11.1733 25.5089
H 10.8075 11.8389 25.3071
H 9.2493 11.655 25.7596
O 24.0074 1.61784 13.6744
H 23.8462 2.60066 13.5844
H 24.8272 1.46361 14.2259
O 23.5378 17.1899 2.72768
H 23.644 18.0746 2.2738
H 24.0527 17.1912 3.58493
O 0.900741 25.4518 9.22693
H 0.726283 26.1931 9.87501
H 29.0378 25.5418 8.44394
O 6.64073 6.02457 28.9832
H 6.18237 6.60188 28.3075
H 5.95692 5.51121 0.749198
O 5.47278 2.89417 7.28113
H 5.59328 3.87512 7.12879
H 5.29289 2.4409 6.40809
O 9.47684 24.5704 8.31733
H 9.50818 25.397 7.75545
H 9.20802 23.7918 7.7502
O 8.5783 16.5601 18.968
H 9.55205 16.7499 18.8423
H 8.05398 17.0188 18.2505
O 4.00686 12.5901 12.0029
H 5.00077 12.7002 12.0091
H 3.75732 11.8507 11.3776
O 28.5851 19.3493 17.9644
H 28.5833 19.9846 18.7366
H 0.759389 19.0026 17.8202
O 18.5775 8.78457 23.5498
H 17.7092 8.58669 23.0948
H 19.1962 8.00666 23.44
O 8.36229 6.84567 19.7762
H 7.48104 6.37355 19.7986
H 8.32509 7.64925 20.3703
O 24.6008 17.615 5.22333
H 24.3177 18.3821 5.79902
H 24.2107 16.7671 5.58236
O 23.6506 14.9165 6.56577
H 22.8056 14.429 6.34601
H 24.4189 14.2767 6.54763
O 19.8744 4.5441 26.7457
H 19.2097 5.11617 27.2262
H 19.5708 3.59153 26.7661
O 1.601 12.2648 4.97884
H 2.40427 11.9556 4.4698
H 1.43806 13.2329 4.78839
O 14.5401 3.43703 27.4664
H 14.0389 2.5961 27.2626
H 14.9011 3.82393 26.6179
O 8.23754 12.0804 4.77213
H 7.55702 12.7982 4.62463
H 9.06053 12.2877 4.24322
O 24.5061 7.99556 15.8253
H 24.0526 7.40552 16.4933
H 25.4575 7.70711 15.7173
O 12.4016 4.981 24.9764
H 12.1337 4.1661 24.4624
H 11.9319 4.98758 25.8592
O 24.3519 6.74305 22.2636
H 25.1049 7.07912 21.6979
H 23.494 6.81772 21.7552
O 28.2569 0.785775 27.0799
H 28.5681 0.758322 26.1299
H 27.298 29.2582 27.1247
O 1.5999 1.16656 29.2809
H 1.1493 29.4195 28.5411
H 1.02388 1.93319 0.812106
O 29.0059 4.62282 4.34476
H 28.4233 5.36513 4.01374
H 1.06226 5.00707 4.78975
O 12.5632 17.6844 13.6372
H 12.1664 17.8169 14.5455
H 11.8754 17.8869 12.9402
O 27.3529 7.84101 11.5415
H 27.2191 8.81562 11.362
H 26.4672 7.37686 11.5386
O 4.92167 22.0684 14.3763
H 4.01844 21.7195 14.6262
H 5.23458 22.7132 15.0736
O 3.44388 6.7858 3.82712
H 2.8753 6.12585 4.31821
H 3.65899 7.55412 4.42997
O 17.054 10.2859 25.2008
H 17.3963 10.3969 26.1338
H 17.6933 9.72413 24.6758
O 27.9967 9.10857 6.35654
H 27.8747 9.62755 5.51049
H 27.2091 9.25631 6.95468
O 28.3341 13.4745 26.0313
H 27.7444 12.9979 26.6834
H 28.2144 13.077 25.1215
O 21.9562 13.5492 17.6224
H 22.8393 13.299 17.2254
H 21.2324 13.3936 16.9502
O 12.7896 14.739 24.0175
H 13.3843 15.2215 24.6607
H 11.9603 15.2761 23.8631
O 23.534 5.36963 13.0868
H 22.674 5.8705 13.185
H 23.9867 5.64764 12.2396
O 7.59101 16.0878 25.0494
H 6.8867 16.4572 24.4432
H 7.71407 16.7007 25.8298
O 8.24214 15.158 10.6719
H 9.22119 15.337 10.5748
H 7.91903 15.5341 11.5403
O 17.6071 9.06315 5.58168
H 17.7701 9.97493 5.9586
H 18.0344 8.37754 6.17102
O 1.05769 10.9478 7.18024
H 29.1844 10.1865 7.01027
H 1.16492 11.4844 6.34323
O 8.19551 18.0249 26.7135
H 9.17266 18.2258 26.7829
H 7.68372 18.8808 26.6393
O 6.14628 9.75401 22.6875
H 6.03129 10.0208 21.7306
H 5.26144 9.78938 23.152
O 12.8522 4.72537 29.371
H 13.6274 4.29546 28.9082
H 12.9296 4.57868 1.60465
O 1.03358 28.7968 3.29026
H 1.19875 29.3546 2.47686
H 0.710573 29.3809 4.03494
O 15.8856 5.90111 8.23981
H 15.7453 4.91704 8.34895
H 15.2142 6.26385 7.59347
O 16.5417 8.01438 10.3
H 17.3522 8.58812 10.1822
H 16.3832 7.48598 9.46596
O 25.8852 14.7727 16.8114
H 25.2484 15.2684 17.4019
H 26.6779 15.3503 16.6169
O 12.525 14.6202 17.6929
H 11.7774 13.9645 17.5875
H 13.3804 14.1275 17.8525
O 3.32876 16.7411 23.1267
H 2.84465 16.2982 23.8813
H 3.59547 16.0528 22.4521
O 26.0981 15.6078 24.3732
H 25.166 15.9672 24.4192
H 26.2522 14.9821 25.1379
O 6.53548 19.3291 4.63913
H 6.3057 18.4099 4.95873
H 5.71617 19.9022 4.65566
O 9.27208 15.6862 2.9643
H 9.30666 16.6276 3.29972
H 9.30465 15.6871 1.96483
O 7.06123 21.3124 7.2765
H 7.27289 20.3408 7.383
H 6.17581 21.4128 6.8227
O 1.41026 15.559 25.0838
H 0.913155 15.7065 24.2288
H 1.22997 14.6342 25.4189
O 21.5609 15.4156 3.65727
H 21.9574 16.2661 3.31172
H 20.6562 15.6012 4.04066
O 20.1157 21.8962 8.859
H 20.5523 21.3781 8.12354
H 19.2428 21.4692 9.09482
O 18.8364 8.77668 1.08947
H 19.6727 8.58714 1.60393
H 18.0947 8.98905 1.72561
O 12.2036 26.886 15.1628
H 12.439 26.8983 14.191
H 11.9604 25.955 15.4351
O 3.19129 11.1563 3.04895
H 4.01566 11.6979 2.88415
H 2.69707 11.0314 2.18864
O 21.1562 13.8534 14.8077
H 22.1387 13.6967 14.7072
H 20.9999 14.7786 15.1536
O 11.1786 16.9732 18.2006
H 11.6248 17.3756 19
H 11.5878 16.0822 18.0038
O 2.88737 11.058 9.85449
H 2.29773 11.1104 9.04853
H 3.7708 10.667 9.5963
O 15.2387 8.04431 2.4713
H 15.2346 7.29888 3.13786
H 14.6491 7.80493 1.69989
O 20.9237 26.2657 18.158
H 21.8434 26.3939 17.7871
H 20.376 27.0835 17.9814
O 24.2094 14.3578 21.9582
H 23.9215 13.7928 21.185
H 24.8925 15.0203 21.6509
O 25.1632 25.3902 7.88085
H 24.4692 25.1628 8.56403
H 24.7302 25.8527 7.1071
O 7.34828 9.35154 25.0807
H 6.90965 9.38877 24.1828
H 8.30762 9.62028 24.9944
O 27.8165 11.4917 24.1643
H 26.8831 11.5239 23.8068
H 27.9674 10.6163 24.6236
O 22.1851 7.36373 21.0942
H 22.0606 8.35465 21.145
H 21.6942 7.00646 20.2996
O 9.71361 15.781 28.9757
H 10.2249 15.0925 28.4613
H 9.75781 16.6569 28.4951
O 26.7192 8.35222 24.2583
H 26.7942 8.07055 23.3017
H 25.8534 8.02366 24.6356
O 24.1712 16.7197 17.9705
H 23.2008 16.805 18.1961
H 24.687 17.4356 18.441
O 21.5533 9.99397 21.1431
H 21.4576 10.7409 20.4851
H 21.1953 10.2838 22.0308
O 27.7984 16.5624 18.0704
H 28.0694 17.5124 17.9154
H 27.0495 16.5332 18.7325
O 6.7281 14.3015 3.92012
H 6.42344 14.4328 4.86349
H 7.3744 15.0241 3.67495
O 28.3849 13.0764 21.6864
H 27.9901 12.6534 22.502
H 28.7069 13.9961 21.9106
O 23.9095 25.3331 23.3645
H 24.2477 26.272 23.3001
H 23.5028 25.1865 24.2663
O 1.88453 19.567 6.56963
H 2.81638 19.2188 6.67157
H 1.64588 20.1194 7.36833
O 5.68323 22.5838 23.1951
H 6.43518 21.9248 23.1783
H 5.59143 22.9612 24.1166
O 28.3704 17.3804 21.1294
H 28.479 18.2327 21.6411
H 29.1303 17.2779 20.4875
O 15.79 25.7102 9.38002
H 15.6633 25.3209 10.2923
H 16.3287 26.55 9.4479
O 7.90507 20.6775 25.6109
H 8.79005 21.1293 25.4982
H 7.49502 20.5189 24.7127
O 17.8431 15.1805 9.38704
H 17.6535 15.642 10.2537
H 18.8122 15.28 9.16137
O 4.61156 17.9323 27.393
H 4.59783 16.9332 27.4343
H 4.72239 18.3025 28.3153
O 22.6414 28.3957 12.4723
H 23.101 29.2126 12.8208
H 23.2104 27.967 11.7705
O 23.5485 16.7749 8.53388
H 23.3488 16.1299 7.7962
H 24.4678 17.1485 8.41021
O 14.5927 27.3691 28.2913
H 14.4867 27.9694 29.084
H 14.0182 26.5589 28.4076
O 28.3911 18.0103 1.81169
H 27.9001 18.215 2.65845
H 28.8507 17.1264 1.89819
O 5.75593 0.776691 14.4211
H 4.86534 0.844146 13.9714
H 6.05384 1.6869 14.7088
O 3.51854 9.29293 5.22823
H 3.39476 9.71319 4.32931
H 3.03865 9.83462 5.91836
O 26.0016 6.79129 18.767
H 25.9962 7.73149 18.4264
H 25.111 6.36987 18.5965
O 17.0424 9.97102 3.13902
H 17.499 9.57854 3.93746
H 16.2779 9.38491 2.87064
O 15.1269 7.84513 6.08035
H 14.3673 8.13097 6.66453
H 15.8091 8.57518 6.0396
O 25.0026 3.9922 21.9762
H 24.3755 3.49035 22.5719
H 24.7122 4.94719 21.9156
O 25.2405 20.0746 17.0062
H 26.12 20.5393 16.9036
H 24.9975 19.6271 16.1455
O 16.7603 21.109 16.4251
H 16.3794 20.3187 16.905
H 17.6421 20.8619 16.0235
O 29.2813 14.6679 3.89693
H 29.316 15.1082 2.99976
H 28.4407 14.1316 3.97273
O 16.9682 3.66679 29.113
H 16.0372 3.72357 28.7525
H 17.5281 4.3881 28.7052
O 12.7543 22.9749 28.3167
H 12.4467 22.0237 28.3408
H 13.2449 23.145 27.462
O 7.43695 26.6986 11.9608
H 7.6978 25.9163 11.395
H 6.51006 26.5626 12.3106
O 29.3198 25.9559 13.4797
H 28.791 26.6726 13.025
H 29.038 25.8904 14.437
O 1.76462 13.8371 19.9971
H 1.21672 13.4898 20.7581
H 2.57586 14.3 20.3544
O 9.40171 11.5261 7.25732
H 8.97971 11.7003 6.36762
H 9.54624 12.3937 7.73327
O 10.753 13.9748 27.0074
H 10.0142 14.0521 26.3379
H 11.5165 13.4703 26.6044
O 19.4105 4.26104 12.5304
H 20.0357 4.94387 12.9083
H 18.6284 4.72145 12.1103
O 21.1766 13.7733 5.81795
H 20.2558 14.1037 6.02532
H 21.5079 14.2122 4.98272
O 6.06428 7.54454 27.0836
H 5.74602 6.94966 26.3455
H 6.74226 8.18649 26.7255
O 13.0473 27.1825 12.4423
H 12.4063 27.9232 12.2412
H 12.8489 26.4004 11.8516
O 5.15993 4.48627 2.38301
H 5.56185 3.61182 2.65466
H 5.03707 5.06208 3.19131
O 17.3325 28.7426 15.4854
H 16.3701 28.5406 15.6675
H 17.409 0.891584 15.0594
O 27.2824 21.7236 19.3348
H 27.4866 22.2828 18.5312
H 27.519 22.2314 20.1631
O 7.04131 15.92 13.0865
H 6.23147 16.416 13.3998
H 7.76759 16.0028 13.7689
O 18.6108 24.112 23.519
H 19.5878 23.9003 23.4958
H 18.3848 24.726 22.7627
O 10.8421 17.9981 11.5775
H 9.87791 18.2556 11.6405
H 10.9164 17.0719 11.2079
O 7.79238 11.9289 26.1502
H 7.06582 12.61 26.2407
H 7.40873 11.0138 26.2742
O 10.4725 13.1328 3.45355
H 10.0232 14.0251 3.49724
H 10.7904 12.965 2.52038
O 9.37502 22.3108 6.20454
H 9.30016 22.7061 5.28903
H 8.47355 22.004 6.50984
O 14.8491 28.0431 16.463
H 14.9988 27.2865 17.0994
H 13.9819 27.9087 15.9835
O 19.1906 1.6039 24.5234
H 19.1829 1.66802 25.5213
H 18.3735 1.11721 24.2144
O 25.6731 16.4156 20.8425
H 26.5981 16.6621 21.1317
H 25.2409 17.2024 20.4018
O 24.3258 7.06554 24.917
H 24.8611 6.2889 25.2491
H 24.3882 7.11149 23.92
O 7.39477 4.0038 8.89788
H 8.38781 3.90166 8.83933
H 6.95412 3.30828 8.33036
O 27.2771 18.4334 4.47212
H 26.4009 18.1277 4.84476
H 27.287 19.432 4.42014
O 5.54098 26.988 15.4808
H 5.82674 27.7995 14.971
H 4.74226 26.5804 15.0381
O 21.6736 27.3849 14.6524
H 22.0755 27.671 13.7825
H 20.7415 27.7405 14.7219
O 13.9631 6.47217 23.3336
H 13.2848 6.03569 23.9247
H 13.7276 6.30526 22.3762
O 23.9166 19.731 1.73168
H 24.7451 20.0155 1.2494
H 23.403 20.54 2.01775
O 3.84428 8.77464 28.5031
H 3.46595 7.88349 28.7535
H 4.5636 8.65115 27.8194
O 26.1372 20.7644 29.3182
H 26.7464 20.0748 28.9266
H 26.1868 21.6012 28.7729
O 23.4884 6.25919 17.7381
H 22.7328 6.80464 18.1009
H 23.263 5.28763 17.8107
O 17.0978 11.8078 11.2449
H 16.2334 11.4401 11.5877
H 17.4847 12.435 11.9209
O 5.97792 17.5806 17.4333
H 5.02545 17.8852 17.4337
H 6.44344 17.943 16.6258
O 2.30981 5.42788 5.86317
H 3.25678 5.49313 6.17779
H 1.72552 5.9935 6.44513
O 13.1659 25.5689 7.92043
H 14.0547 25.1675 8.14146
H 12.6579 24.9466 7.32496
O 17.9385 23.3691 2.89796
H 17.2929 23.9612 3.38018
H 18.0337 22.506 3.39402
O 12.0704 23.4631 6.42481
H 12.2347 23.4268 5.43907
H 11.1549 23.113 6.62324
O 25.4008 18.6885 19.5436
H 25.6716 19.1975 18.7265
H 25.5726 19.2461 20.3557
O 27.2406 21.0798 3.65568
H 27.2711 20.8614 2.68029
H 26.343 21.456 3.88515
O 13.2018 23.3776 3.24029
H 12.3526 22.8902 3.03705
H 13.582 23.7516 2.39443
O 21.6922 1.94507 15.6291
H 22.5383 1.94225 15.0961
H 20.9163 1.76819 15.0237
O 8.70986 6.25973 10.2175
H 8.01022 5.70907 9.76219
H 9.32923 6.64409 9.53289
O 22.6058 4.13944 27.6749
H 22.0613 4.7487 27.0984
H 22.2492 4.15742 28.6089
O 21.1269 16.4024 16.2717
H 21.5795 16.7666 17.0857
H 20.1881 16.1442 16.4998
O 7.0659 20.0705 22.8829
H 7.90789 20.2417 22.3713
H 6.85532 19.0932 22.8608
O 10.7467 7.10245 8.22493
H 11.0232 6.22215 7.83943
H 10.4371 7.70571 7.48994
O 11.2699 21.5716 2.07646
H 12.0997 21.0235 2.18102
H 10.578 21.0392 1.58885
O 18.8329 9.90214 9.80442
H 19.4759 10.3239 9.16521
H 18.3949 10.6132 10.3545
O 28.597 2.74136 16.9726
H 28.1662 3.51884 17.4308
H 28.8165 2.99021 16.0293
O 12.7535 18.0753 20.5304
H 13.5651 17.4952 20.4605
H 12.928 18.8159 21.1793
O 6.17619 17.4782 23.0532
H 5.21821 17.5744 23.3234
H 6.25042 16.7962 22.3257
O 11.0741 15.4732 10.6768
H 11.1983 15.2245 9.71618
H 11.4226 14.7387 11.259
O 20.2566 6.35594 22.8027
H 20.2887 5.39615 23.0816
H 21.0798 6.57894 22.2805
O 20.2174 25.0288 14.8984
H 19.3998 25.4297 14.4849
H 20.888 25.7489 15.0767
O 22.5357 3.55362 17.589
H 22.0641 3.10487 16.83
H 23.2565 2.9531 17.9353
O 6.79673 12.5255 11.2157
H 7.1779 13.4451 11.3108
H 7.34914 11.8796 11.7425
O 18.6686 22.756 14.928
H 19.3899 23.441 15.0306
H 17.7924 23.1507 15.2046
O 21.9812 23.9066 22.0601
H 22.2177 22.9357 22.0217
H 22.6565 24.3924 22.615
O 5.13085 1.52961 9.83694
H 5.19938 29.2851 9.87138
H 5.27281 1.84121 8.89739
O 3.02684 13.6729 0.970542
H 2.63878 12.9326 29.1741
H 3.80246 13.3257 1.49768
O 17.0411 21.9626 24.6839
H 17.7289 22.6745 24.5424
H 17.457 21.0643 24.5418
O 14.7879 2.3084 22.4382
H 15.0071 2.48288 21.4782
H 15.2411 2.98986 23.0128
O 9.61926 27.1446 2.6185
H 10.3509 26.6319 2.16918
H 8.77371 27.0484 2.09333
O 1.92989 14.7036 12.2631
H 2.54204 13.9167 12.1851
H 1.36428 14.606 13.082
O 1.06698 15.0649 17.6983
H 28.8676 15.349 17.813
H 1.387 14.6252 18.5375
O 7.4492 2.39127 18.0761
H 7.17207 2.31956 19.0343
H 7.68468 1.48371 17.7284
O 1.99892 20.3357 1.52553
H 1.17399 20.3935 0.963264
H 1.74104 20.2505 2.48794
O 26.5029 1.17398 14.6234
H 26.9375 1.9673 14.1971
H 27.1422 0.747468 15.2633
O 2.5775 22.7052 5.23537
H 1.99525 22.0422 4.76473
H 2.17282 22.935 6.12047
O 21.5562 0.753829 4.24879
H 21.4148 28.5213 4.34689
H 21.1566 1.22767 5.03355
O 28.5942 15.587 23.0343
H 27.7066 15.4129 23.4607
H 28.4771 16.2161 22.2658
O 6.67712 15.8467 20.9623
H 7.29473 15.169 21.3614
H 7.1516 16.3427 20.2351
O 25.9607 23.1482 27.9831
H 25.8977 23.0292 26.9922
H 26.7138 23.7704 28.1969
O 22.2109 21.7558 3.10117
H 21.5539 21.2167 3.62824
H 21.9212 22.7128 3.08667
O 26.6408 22.3339 15.1978
H 25.7587 22.238 14.7365
H 27.3449 21.8547 14.6738
O 13.3109 20.4936 22.2228
H 13.7159 20.5218 21.3089
H 13.5832 21.3092 22.7334
O 14.2534 21.9656 15.2064
H 14.0405 21.1212 14.7147
H 15.0156 21.8032 15.833
O 5.23278 24.3299 16.9433
H 5.93179 23.8181 17.4427
H 5.65225 25.123 16.5016
O 24.175 13.1555 15.1096
H 24.5249 12.2363 15.2901
H 24.8007 13.8324 15.4973
O 15.0554 20.7302 7.3104
H 14.1722 21.0194 7.67963
H 15.1228 21.0073 6.35192
O 1.99231 17.7831 18.5506
H 1.70187 16.8344 18.4258
H 2.64495 17.8352 19.3065
O 14.5091 22.6807 23.6311
H 14.7134 23.1147 22.7536
H 15.3529 22.3219 24.03
O 19.8309 15.2205 26.1907
H 19.0272 14.7481 25.8288
H 19.8867 15.0743 27.1784
O 10.9129 18.5031 1.84123
H 10.2853 18.5289 2.61934
H 11.7449 18.0125 2.10021
O 8.36306 25.214 4.45574
H 8.55891 26.0055 3.87681
H 8.55465 24.3741 3.94798
O 0.788569 6.80384 10.4923
H 0.963736 7.05951 9.54155
H 28.738 7.29661 10.8275
O 8.67764 8.75797 21.6753
H 9.2785 8.64831 22.4671
H 7.8366 9.22007 21.9565
O 3.62142 27.7755 21.3655
H 4.31327 27.1023 21.6265
H 3.37123 28.323 22.164
O 12.5874 24.0599 15.4114
H 13.3352 23.4625 15.1217
H 11.7547 23.8166 14.914
O 21.059 21.2183 22.84
H 21.7556 21.0914 22.1338
H 21.3778 21.8934 23.5052
O 16.4851 18.356 13.6601
H 17.0868 18.7997 14.3243
H 15.7914 19.0069 13.3519
O 19.1218 16.2593 4.56337
H 18.5211 15.7054 3.98696
H 18.671 16.4406 5.43736
O 28.3315 19.4925 28.4084
H 28.8384 18.9642 27.7272
H 28.2077 18.9409 29.2332
O 28.4796 25.5972 16.1459
H 29.3741 25.2752 16.456
H 27.764 25.1931 16.7156
O 18.0315 26.7334 13.8853
H 17.7581 27.525 14.4318
H 17.5246 26.7324 13.0233
O 26.9427 23.6816 17.4351
H 26.8869 23.2658 16.5274
H 26.0399 24.0174 17.704
O 14.105 24.876 0.675421
H 13.6 24.097 29.0561
H 15.0867 24.6938 29.3728
O 7.9884 0.788282 8.16533
H 8.08325 29.3493 9.14224
H 7.34528 28.8915 7.75934
O 28.4718 16.4382 6.14925
H 28.1762 17.2698 5.67906
H 29.1232 15.9437 5.57387
O 23.2042 21.3097 21.1515
H 24.1325 21.0978 21.4572
H 23.2138 21.5123 20.1723
O 12.3394 12.6308 25.3978
H 13.1628 12.075 25.5127
H 12.5272 13.3766 24.7587
O 1.19334 5.24553 12.7872
H 2.17185 5.35492 12.6124
H 0.672866 5.67317 12.0481
O 11.4412 10.9829 16.0188
H 10.9623 10.1091 15.9345
H 11.097 11.4759 16.8179
O 18.709 24.4166 18.3165
H 19.3332 24.9534 17.7488
H 19.1209 24.2673 19.2154
O 20.4448 3.868 23.8901
H 20.3025 4.39812 24.726
H 19.8148 3.09147 23.8766
O 8.70547 22.5693 3.30092
H 9.62908 22.3394 2.99419
H 8.05442 21.9136 2.91864
O 18.8401 15.0237 23.1788
H 19.4207 14.4638 23.77
H 17.9073 14.6636 23.19
O 5.19951 12.8186 2.42312
H 5.73682 12.0446 2.08795
H 5.78945 13.4309 2.94951
O 24.3491 11.0634 4.52888
H 23.521 11.3975 4.07865
H 24.2606 10.083 4.70456
O 20.5149 10.6082 23.4412
H 20.6153 11.2501 24.2014
H 19.7313 10.0105 23.6109
O 25.9036 20.6965 21.3698
H 26.2603 21.2254 20.5998
H 26.6618 20.4013 21.9512
O 3.22899 25.5391 14.661
H 2.94335 25.6757 15.6095
H 2.5174 25.0391 14.1673
O 25.5533 17.712 15.5606
H 25.137 17.295 16.3685
H 25.7649 17.0009 14.89
O 26.261 18.116 8.43224
H 26.2576 18.808 9.15417
H 27.0457 17.5087 8.55642
O 2.13449 25.4932 17.3466
H 3.01196 25.2373 17.7523
H 1.71159 26.2147 17.8948
O 15.3843 17.9627 7.44232
H 15.1897 18.9188 7.22315
H 15.2156 17.8027 8.41492
O 28.1866 3.37928 14.0761
H 27.548 4.06195 14.4313
H 28.9705 3.84056 13.6604
O 14.6863 27.6934 7.40331
H 15.5915 27.3558 7.66145
H 13.9839 27.118 7.82236
O 23.3105 1.86019 2.52502
H 22.7687 1.50974 3.28902
H 24.0756 1.24127 2.34737
O 5.68638 4.17502 11.0252
H 6.58113 4.08384 10.5881
H 5.12982 3.37091 10.8163
O 14.3275 25.2049 17.2474
H 15.2014 24.7576 17.0573
H 13.6395 24.8823 16.5974
O 21.2886 11.1548 4.29079
H 20.5208 11.4812 3.73952
H 21.4312 11.7736 5.06326
O 15.0737 21.9375 4.73424
H 15.3331 22.7875 5.19267
H 14.4193 22.1382 4.00525
O 23.9404 12.5428 20.0163
H 22.9944 12.4261 19.7137
H 24.5594 12.3635 19.2516
O 19.0736 19.7889 24.5438
H 19.7691 20.2784 24.0178
H 19.491 19.3947 25.3626
O 2.20944 26.3481 2.77256
H 1.87357 27.2438 3.06402
H 2.8007 25.9665 3.48304
O 16.4135 23.7682 17.0582
H 17.1663 24.1032 17.6248
H 16.4074 22.7683 17.0692
O 28.3231 16.5665 8.8595
H 28.1922 16.5191 7.86925
H 29.095 15.9874 9.12177
O 17.5726 16.3105 6.84626
H 17.6891 15.8472 7.72476
H 16.8107 16.9553 6.90792
O 9.64405 1.96382 6.49374
H 8.9614 1.51594 7.07114
H 10.196 1.27015 6.03092
O 15.9032 3.28127 8.76332
H 15.8903 2.68181 9.56362
H 15.6633 2.7541 7.94811
C 25.2396 20.7795 6.73664
O 24.5326 19.5584 6.96884
H 25.2329 19.0742 7.37878
C 11.8651 20.435 8.95114
O 13.2502 20.1461 9.15799
H 13.4778 19.2993 9.51049
C 7.40191 24.2221 26.4901
O 6.25473 24.182 25.6373
H 5.54399 23.9129 26.1989
C 8.68849 6.17281 2.88393
O 9.14141 6.50016 1.56765
H 8.5084 6.26269 0.9074
C 9.80468 24.411 17.907
O 8.85217 23.7251 17.0902
H 8.37921 23.2573 17.7614
C 20.8619 27.6915 8.90035
O 19.7223 26.892 8.57314
H 19.8024 26.0465 8.98765
C 28.0981 24.4487 21.0591
O 28.1938 23.1246 21.5905
H 28.973 23.0614 22.1213
C 21.3961 28.6668 21.4685
O 22.6379 29.2996 21.7885
H 22.4856 1.28921 22.3534
C 19.6052 27.2249 5.48165
O 20.7119 26.8179 4.67259
H 20.373 26.5344 3.83725
C 11.9777 27.6489 5.1457
O 10.631 28.0885 4.95058
H 10.3265 27.8934 4.07753
C 22.6176 17.2977 11.8881
O 22.0707 17.3601 10.5683
H 22.7955 17.5269 9.98537
C 3.30546 27.0499 11.9293
O 4.50456 26.4522 12.4291
H 4.18666 25.9391 13.1563
C 22.3254 21.7755 17.8708
O 23.0121 20.5712 18.2216
H 23.816 20.5085 17.7289
C 5.3061 20.4754 11.1786
O 5.26299 20.0216 12.534
H 5.1794 20.7829 13.0876
C 23.3192 2.08218 24.5658
O 22.8605 2.77351 23.4011
H 22.0236 3.18452 23.5553
C 28.4743 28.6815 10.2294
O 28.5811 27.5237 11.0619
H 27.9155 27.5205 11.7328
C 27.7829 26.252 28.856
O 28.0068 24.8744 28.5445
H 28.6248 24.5796 29.1958
C 25.0537 5.21503 1.63294
O 24.7484 6.54113 2.07247
H 24.3558 6.91039 1.29624
C 23.7412 25.4341 0.71957
O 23.5443 24.3957 28.5088
H 24.1217 23.6725 28.7003
C 17.2834 5.31545 19.2131
O 16.48 4.58308 18.2841
H 16.9692 4.53273 17.4771
C 4.17838 6.6008 13.4836
O 3.99382 5.40346 12.7238
H 4.76517 5.0684 12.2928
C 22.4092 9.69399 10.4634
O 23.7565 9.62441 10.9374
H 23.7586 9.90436 11.84
C 25.9641 26.6937 13.7156
O 27.0536 27.4793 13.2249
H 27.0939 28.3028 13.6866
C 4.65234 7.02425 9.86707
O 4.9505 5.92231 9.00583
H 5.32451 5.32839 9.6386
C 0.681819 4.3396 29.318
O 29.0221 3.46587 1.61983
H 28.6387 3.94643 2.33756
C 26.3917 0.995975 1.7798
O 25.22 29.0062 1.43155
H 25.2942 28.7508 29.2773
C 12.2101 25.6748 22.4681
O 11.7584 25.2467 21.1806
H 12.1607 25.8274 20.553
C 20.214 12.9831 20.6085
O 21.4176 12.6405 19.9165
H 21.3582 13.2235 19.1751
C 14.9848 15.3188 15.1551
O 16.193 15.9209 14.6834
H 16.0449 16.7088 14.1831
C 2.41949 6.8709 25.5686
O 3.42447 7.10865 24.5794
H 4.16503 6.54928 24.7575
C 6.50549 25.4985 1.06096
O 7.37713 26.6223 1.21046
H 7.20884 27.3577 29.3939
C 18.0609 20.0498 5.32133
O 17.5014 20.7743 4.22269
H 16.6538 21.1111 4.47009
C 16.5215 24.8972 20.4748
O 15.9254 23.7745 21.1298
H 16.6309 23.1766 21.3242
C 4.88661 10.4206 15.0986
O 4.21827 9.19126 15.3935
H 3.67908 9.30403 16.1614
C 7.22454 9.5672 1.74548
O 7.14616 10.7946 2.47511
H 7.62813 10.7152 3.28409
C 9.86024 4.9031 17.7067
O 9.61236 3.69098 16.9896
H 8.93315 3.24769 17.4746
C 13.4335 15.2281 6.72992
O 12.2377 14.5758 6.29457
H 12.3463 13.7601 5.82996
C 18.3507 11.9696 15.5401
O 19.5014 12.4262 16.2559
H 20.064 12.7444 15.5666
C 3.65684 2.23108 4.45978
O 4.74667 1.54515 5.08162
H 4.41283 0.739299 5.44518
C 21.4274 8.17713 25.8716
O 22.1706 7.31596 26.7382
H 22.9198 7.14972 26.1868
C 21.9814 9.85551 15.191
O 22.4729 8.9507 14.1988
H 23.3165 8.70103 14.544
C 11.1063 19.7677 16.0537
O 11.2428 18.346 15.9821
H 11.1214 18.0279 16.8636
C 13.6808 9.54858 24.2968
O 14.3304 10.7219 24.7928
H 15.2429 10.563 24.9802
C 18.0816 16.3966 17.6086
O 18.6465 15.9002 16.3923
H 18.0156 15.8838 15.6889
C 27.3796 12.1098 18.8544
O 26.0005 12.0774 18.4777
H 25.8901 12.8398 17.9303
C 20.8728 23.5286 5.89772
O 20.9588 22.1719 5.45392
H 21.2487 21.6551 6.1901
C 9.78379 18.3449 5.37915
O 9.07032 18.2971 4.14078
H 8.45639 19.0143 4.18225
C 4.80883 3.67786 25.1031
O 5.33336 5.00171 24.972
H 6.27787 4.97342 24.9606
C 19.4722 15.8005 0.735576
O 20.2061 14.7189 28.9079
H 20.5338 14.2206 0.888457
C 16.26 8.62436 21.1721
O 16.5018 7.71518 22.249
H 15.7516 7.15642 22.3837
C 19.2473 4.56671 15.8257
O 17.974 5.12763 16.1557
H 17.7421 5.73105 15.4664
C 12.0113 5.1536 11.711
O 12.0932 4.91086 13.1179
H 11.213 4.95698 13.4587
C 14.2302 18.0073 24.2026
O 14.6295 16.6989 24.6192
H 15.5474 16.6241 24.4073
C 20.2182 7.21121 12.0547
O 21.0954 6.6895 13.0563
H 21.4736 7.45177 13.4674
C 4.41305 13.1668 25.5718
O 5.64365 13.4669 26.2355
H 5.4786 14.1887 26.8227
C 2.50007 28.1314 6.35273
O 3.82467 27.8762 5.87819
H 3.93685 26.9496 5.7306
C 24.3361 6.49556 9.65454
O 24.6979 7.04628 10.9237
H 24.4164 7.94835 10.9305
C 25.0056 3.22948 6.84469
O 24.6297 3.25801 8.22411
H 25.4588 3.22148 8.67607
C 15.464 1.00773 19.1756
O 15.6632 2.24082 19.8718
H 16.0832 2.92419 19.3722
C 1.81121 23.1423 12.0857
O 1.1414 23.295 13.3399
H 0.79761 24.1747 13.3081
C 20.2399 24.5223 11.119
O 20.4745 24.4013 9.71357
H 20.4038 23.4918 9.46689
C 26.1227 23.0752 24.4168
O 25.6953 22.3054 25.5436
H 25.6973 21.4069 25.2507
C 4.48237 6.49645 21.2274
O 5.58114 5.97718 20.4738
H 5.61135 5.03339 20.511
C 23.3974 14.8662 26.898
O 24.7272 14.5865 27.3433
H 24.7376 14.822 28.2584
C 21.2878 17.4224 19.7123
O 21.8166 17.8972 18.4714
H 21.9203 18.8286 18.5927
C 25.5177 27.6883 26.4068
O 25.6289 28.8004 27.2989
H 24.8631 29.3431 27.1892
C 17.9207 0.946501 2.84039
O 16.702 1.42847 2.26827
H 16.8509 2.30444 1.9465
C 14.1048 16.5745 10.2252
O 15.1982 17.4492 9.93464
H 15.9463 17.1993 10.4551
C 16.0878 14.0667 25.7159
O 17.4258 14.0231 25.2132
H 17.5381 13.2226 24.7237
C 6.4566 27.1511 23.225
O 5.38727 26.3517 22.7128
H 5.69394 25.4579 22.6972
C 11.8996 1.4619 18.0609
O 11.6474 28.8934 18.5469
H 11.0732 28.5346 17.8876
C 1.20839 28.724 15.7878
O 28.6396 29.0436 16.2317
H 28.685 1.157 16.6074
C 9.64649 8.12394 27.5137
O 10.2478 7.26641 26.5401
H 10.3597 6.43376 26.9728
C 8.50283 2.21019 25.0178
O 8.32788 1.27676 23.9487
H 9.06218 0.68918 24.0413
C 18.575 21.4507 20.4871
O 17.7172 21.8285 21.5671
H 18.1375 21.6444 22.3933
C 11.7237 23.9717 10.8351
O 12.4072 25.2192 10.6889
H 12.3824 25.3388 9.75186
C 12.0798 18.3746 27.3412
O 10.7327 18.5288 27.7955
H 10.6879 18.6963 28.7245
C 22.7431 17.3087 23.4326
O 23.1382 16.0486 23.9813
H 23.0551 15.4435 23.2603
C 2.81362 1.93179 22.9212
O 3.10056 0.679158 23.5485
H 2.35986 29.2932 24.1187
C 18 27.4031 26.4924
O 17.3224 28.1175 27.5294
H 16.4848 27.696 27.6467
C 16.8257 12.3988 22.1604
O 16.5961 13.7818 22.4424
H 15.6725 13.9058 22.2855
C 4.24288 13.6414 22.3389
O 4.11746 14.5938 21.2796
H 5.01187 14.7821 21.0396
C 4.72022 21.9892 0.793766
O 4.15007 21.8277 2.09521
H 3.36876 21.3562 1.84965
C 16.4865 27.8265 23.4988
O 16.6461 29.2431 23.6113
H 15.9963 0.850799 23.0274
C 7.95087 13.0472 23.4734
O 7.74011 14.3607 22.9488
H 7.7386 14.8223 23.7734
C 1.5416 9.97514 13.2402
O 1 10.5113 12.0302
H 1.77918 10.6669 11.5187
C 14.801 18.3034 17.6196
O 15.4268 19.5371 17.982
H 14.8111 19.9056 18.597
C 4.98242 12.7518 6.39601
O 5.66661 14.006 6.33467
H 5.93319 14.3361 7.17908
C 3.9578 16.6124 5.69684
O 5.15732 17.3608 5.91096
H 5.1765 17.6511 6.81006
C 28.0661 6.81442 14.8912
O 27.0394 7.00993 15.8672
H 27.3679 6.91195 16.7478
C 6.86661 10.1926 19.4288
O 5.79884 10.6907 20.2391
H 5.41035 11.4389 19.8123
C 3.30065 24.9403 27.5302
O 4.02813 23.8681 26.9252
H 3.38542 23.3036 26.5236
C 6.19809 26.4954 8.55041
O 5.80652 27.4155 9.57267
H 5.94482 26.9832 10.4016
C 11.0953 11.3598 29.1307
O 11.1612 12.7478 0.715645
H 10.855 13.2628 28.7374
C 23.8773 9.44198 19.0263
O 25.0584 9.54226 18.2264
H 25.4752 10.3832 18.3362
C 12.9078 10.2621 3.70066
O 12.4613 11.4448 4.36907
H 11.7579 11.8337 3.87211
C 16.3289 17.35 21.006
O 15.4739 16.6125 20.1285
H 15.9384 15.8563 19.8036
C 21.8112 21.3423 11.5971
O 21.4707 21.2421 12.9824
H 20.5826 21.5512 13.0757
C 15.9157 4.92189 12.0707
O 17.0763 5.7065 11.7839
H 16.7887 6.40637 11.2178
C 3.14065 2.30003 12.6155
O 3.25854 2.90143 13.9075
H 3.26204 3.84029 13.8001
C 19.3025 0.949014 18.0903
O 19.3396 28.4003 17.4984
H 18.5677 28.2969 16.9632
C 12.1921 12.3063 10.7753
O 12.0859 13.2601 11.8354
H 11.941 12.7786 12.6356
C 6.92939 21.2102 18.5154
O 7.12754 22.5816 18.8689
H 6.44719 22.7361 19.5063
C 2.56525 9.65723 18.8404
O 2.52698 10.0833 17.4759
H 2.64086 11.0214 17.4792
C 10.2085 16.6616 22.6002
O 10.6897 16.2233 23.8735
H 9.92907 16.409 24.4026
C 2.02414 17.248 15.0909
O 2.74376 16.1026 15.5547
H 2.12036 15.7949 16.1948
C 26.2315 15.695 12.4682
O 26.8026 16.5461 13.4655
H 26.9638 17.4045 13.1046
C 22.0135 26.2277 26.1314
O 22.8976 25.1346 25.8695
H 23.3477 24.8845 26.6619
C 2.23582 3.5214 8.75828
O 1.01835 3.6463 9.49791
H 1.07663 4.38177 10.0884
C 24.0133 9.44616 29.2032
O 23.811 8.0785 28.8379
H 23.2476 7.93837 28.0923
C 16.0897 12.7863 18.5576
O 14.8571 12.8372 17.8345
H 14.6545 12.0467 17.358
C 13.7991 5.02332 16.8797
O 13.7312 5.35304 18.2695
H 14.5772 5.10659 18.611
C 25.2954 1.51733 19.5571
O 24.1708 2.37197 19.3342
H 24.1255 2.88769 20.1247
C 2.03168 21.3649 16.0066
O 2.40809 21.4234 14.6283
H 1.92842 22.077 14.1427
C 6.8104 6.12806 6.24665
O 5.4453 5.75672 6.45524
H 5.32367 5.78135 7.39205
C 7.48848 1.49698 2.97041
O 6.82431 2.51679 3.72126
H 6.13585 2.2045 4.28829
C 11.5299 5.69438 20.8734
O 12.9448 5.89615 20.827
H 13.1234 5.66648 19.9279
C 8.54204 4.64268 13.6042
O 9.74014 4.33625 14.3222
H 9.60058 4.17664 15.2431
C 18.1115 18.3404 10.7555
O 17.5673 17.2183 11.4554
H 17.0742 17.5631 12.1842
C 4.29463 28.5073 1.93702
O 4.30656 29.3024 0.748474
H 3.39441 0.713277 29.3157
C 24.6015 28.9173 9.86088
O 24.5915 27.7481 10.6841
H 25.0625 27.1414 10.1335
C 19.115 6.66459 8.38222
O 18.2093 6.94854 7.31267
H 17.3713 6.59962 7.57534
C 28.4261 13.293 14.8745
O 28.9242 14.5685 14.4625
H 28.1816 15.1392 14.3368
C 28.0447 9.37049 27.5095
O 28.2149 10.6963 28.0176
H 27.5574 11.2723 27.6584
C 9.9317 15.0235 14.6398
O 9.12647 16.1507 14.9945
H 9.64108 16.8555 15.357
C 28.1267 5.0725 22.5309
O 27.6736 3.86779 21.9077
H 26.7633 3.94549 21.6665
C 14.0405 17.0771 4.01583
O 13.6333 17.9455 2.95522
H 13.9616 17.4924 2.19369
C 26.6163 11.619 11.2667
O 27.3428 10.4212 10.9798
H 28.1464 10.4512 11.4761
C 12.6425 0.733174 26.0819
O 13.4306 1.03257 27.2369
H 13.923 29.0719 27.6138
C 4.90132 18.6188 20.2666
O 3.52321 18.3069 20.4868
H 3.40136 17.9971 21.3712
C 5.15041 24.9638 4.81265
O 3.73548 25.157 4.88693
H 3.33748 24.308 5.00456
C 26.002 3.81945 27.1499
O 25.0244 4.58892 26.4449
H 24.286 4.62566 27.0334
C 11.4138 2.1479 22.4376
O 12.3749 2.6598 23.3645
H 13.2014 2.33992 23.0364
C 25.8765 18.7306 25.4187
O 26.9848 19.6271 25.3048
H 27.5187 19.3622 26.0381
C 2.29095 10.2125 23.768
O 3.57699 9.60681 23.6125
H 3.43493 8.75703 24.0008
C 25.5401 20.8812 11.2716
O 26.0392 19.8435 10.4237
H 26.5905 19.2646 10.9276
C 7.14572 2.15952 21.0847
O 6.11432 3.0185 20.5915
H 5.32729 2.53898 20.3825
C 9.6708 8.81509 5.05021
O 9.63984 8.84925 6.47947
H 9.4946 9.73477 6.77576
C 26.6574 10.5977 15.1136
O 25.3509 10.8069 15.656
H 25.0163 9.96522 15.9253
C 9.02886 24.2631 13.8121
O 9.84814 23.5104 14.7105
H 9.5251 23.7232 15.5727
C 8.52388 23.816 21.7918
O 9.8594 23.307 21.8385
H 10.3712 24.0221 21.4925
C 16.2557 12.0334 5.74583
O 17.065 11.3928 6.73553
H 16.8208 11.7016 7.5946
C 23.7135 27.7916 6.29346
O 23.4844 26.4524 5.84725
H 22.6562 26.4879 5.39354
C 10.7957 8.19335 14.3025
O 10.4484 8.51651 15.6516
H 9.65424 8.0835 15.925
C 7.75267 1.19707 11.7696
O 8.68101 29.1243 11.061
H 8.33814 28.2476 11.1433
C 16.9002 18.8818 27.3318
O 16.3036 17.6055 27.0869
H 16.5956 17.3393 26.2285
C 28.596 23.8867 2.74796
O 0.851806 23.9619 1.73676
H 1.32699 24.7297 2.0155
C 5.80397 13.7145 17.5724
O 4.87607 12.9374 18.3339
H 4.17313 12.7373 17.7349
C 2.35139 13.9508 8.94928
O 1.75056 15.1377 9.47398
H 1.68521 15.014 10.4086
C 27.6826 11.3595 3.51937
O 26.7569 12.1721 4.24572
H 25.8939 11.8031 4.13573
C 19.6643 1.0929 12.1951
O 19.7595 1.79471 13.4374
H 19.6333 2.68591 13.1496
C 7.54448 23.1966 10.8101
O 7.7924 24.5693 10.4953
H 8.38188 24.6251 9.75877
C 9.52433 28.609 14.7717
O 10.1388 28.2859 16.0219
H 10.8937 27.7558 15.8166
C 29.1342 5.77056 18.5961
O 27.9676 5.07606 18.147
H 27.2291 5.58784 18.4397
C 23.9939 24.7853 19.5327
O 24.4538 24.9739 18.1919
H 24.1801 25.7992 17.8219
C 19.6357 18.9087 15.0032
O 18.4996 19.765 14.8587
H 18.8969 20.5814 14.597
C 18.9119 14.72 12.6881
O 17.8227 13.8072 12.8475
H 17.4254 14.141 13.6373
C 20.1249 8.11733 17.9994
O 20.911 7.01597 18.462
H 20.3858 6.3516 18.8813
C 24.7121 23.8287 4.12105
O 24.658 22.4077 3.97013
H 23.7785 22.1647 3.72446
C 29.163 18.8971 12.0491
O 27.8635 19.1281 12.5994
H 28.0477 19.1993 13.5235
C 21.1501 19.1507 6.96239
O 21.9725 20.3012 7.1745
H 22.8633 19.9894 7.1269
C 14.5602 1.76868 5.37441
O 14.7381 1.63194 6.7867
H 14.7079 0.723139 7.04397
C 17.3784 24.6447 6.67334
O 17.0996 23.4454 5.94603
H 17.628 22.7366 6.27964
C 15.1246 26.1952 3.91634
O 15.9508 25.3547 3.10652
H 15.7109 25.5798 2.22064
C 13.2314 13.7946 20.6425
O 14.1431 14.1222 21.6943
H 13.6946 14.4201 22.4709
C 16.8944 7.03438 28.063
O 17.9904 6.11896 28.1388
H 18.6284 6.77517 28.3741
C 19.386 11.4741 27.7657
O 18.4906 10.3774 27.5645
H 18.674 9.79284 28.284
C 28.0629 25.7676 6.06938
O 27.6886 24.9911 7.21035
H 26.8163 25.2188 7.49357
C 4.49091 17.3092 10.1179
O 4.96779 16.9328 8.82336
H 5.32731 16.0753 8.99198
C 28.757 21.8031 8.63677
O 1.33722 21.3116 8.47245
H 1.95885 22.0094 8.61267
C 16.7844 5.32782 4.31215
O 15.4915 5.93885 4.32241
H 15.5113 6.54529 5.04689
C 0.855044 20.0535 22.7304
O 28.2706 19.555 22.6362
H 27.9123 19.3718 23.4913
C 28.3696 2.02203 6.37256
O 28.889 2.07619 5.04133
H 28.7093 2.97725 4.82035
C 21.0788 14.4934 9.54194
O 20.473 15.7423 9.19842
H 20.9162 16.4347 9.66446
C 16.84 4.42 24.2484
O 15.4161 4.38109 24.3745
H 15.0775 5.2284 24.1287
C 27.8388 8.62154 20.791
O 26.5939 8.43714 21.47
H 26.3663 9.269 21.8563
C 10.0345 19.6213 20.9716
O 9.21248 20.5893 21.6289
H 9.65648 21.4234 21.6152
C 20.9394 7.70387 4.17116
O 20.8072 8.58906 3.05588
H 20.767 9.45938 3.42187
C 9.37928 9.33864 10.1629
O 9.19984 8.74424 11.4511
H 8.72432 7.93113 11.3753
C 29.3059 21.9524 26.1097
O 1.92532 22.3306 25.9691
H 2.39558 21.5201 26.0919
C 6.14476 28.3541 26.9029
O 6.56649 28.7388 28.214
H 5.77828 28.9028 28.7088
C 19.4726 2.63208 6.42798
O 20.8879 2.43663 6.36935
H 21.3198 2.70455 7.16605
C 7.00042 19.5445 1.11025
O 7.62853 20.1866 2.22299
H 6.95211 20.0569 2.87005
C 6.07549 9.86476 8.32872
O 5.53965 10.3882 9.54681
H 6.3345 10.5696 10.0247
C 26.8073 13.8438 7.49439
O 25.8046 13.283 6.64286
H 26.2334 12.7953 5.95633
C 13.1649 8.03478 28.005
O 13.6298 7.41029 29.2045
H 13.2356 6.5625 29.342
C 5.93403 15.5731 28.7988
O 4.73013 15.2494 28.0982
H 4.13831 14.8751 28.7327
C 14.9868 20.7307 1.324
O 13.6386 20.254 1.33649
H 13.6927 19.4332 1.8017
C 20.954 18.4995 27.4731
O 20.1217 18.1007 26.3808
H 20.2547 17.1874 26.1777
C 14.0425 15.7369 28.7424
O 15.171 16.4914 29.1917
H 15.5864 16.7861 28.3957
C 23.8107 24.3565 10.6098
O 23.192 24.9599 9.47049
H 22.265 24.7801 9.50566
C 24.2211 6.87262 5.37906
O 24.3629 7.88373 4.37783
H 24.1955 7.48301 3.53852
C 12.1401 4.70322 4.03566
O 13.321 4.78214 3.23312
H 13.9652 5.26655 3.72642
C 21.3911 4.94285 2.39417
O 21.8746 3.97339 1.46076
H 22.1755 3.18979 1.89487
C 11.5773 28.7262 9.66275
O 11.1236 28.688 11.0184
H 10.2541 29.0543 11.0712
C 25.8298 27.3724 22.1204
O 24.7025 27.79 22.8949
H 24.0964 28.2955 22.3752
C 13.2953 10.0735 8.02593
O 13.1967 8.64891 7.94967
H 12.3042 8.39763 8.13228
C 17.2325 8.27261 14.2612
O 17.5405 6.88173 14.3857
H 17.2754 6.50965 13.5585
C 13.5818 20.5078 12.4109
O 14.1632 19.7142 13.4486
H 13.6572 18.9217 13.5431
C 4.3841 29.2638 18.3808
O 4.54353 0.968772 19.7263
H 4.46811 28.9204 20.2221
C 13.9153 8.96036 12.4139
O 14.8498 9.72243 11.6452
H 15.4541 9.134 11.2192
C 4.12314 17.8652 2.44682
O 3.84987 18.451 1.17127
H 3.08687 18.9637 1.39042
C 28.1612 7.80451 3.07822
O 27.3052 6.72377 3.45796
H 26.5974 6.68439 2.83301
C 8.50804 20.2485 13.3403
O 8.38785 18.9928 12.6668
H 7.62596 18.6021 13.0667
C 8.33575 11.1074 14.329
O 8.14705 10.8221 12.9405
H 8.64111 10.0731 12.644
C 24.3983 13.8893 2.06118
O 24.3031 14.9682 1.1275
H 24.0867 15.7924 1.53605
C 29.05 27.52 24.45
O 0.757002 28.867 24.5884
H 29.0071 0.688697 24.0308
C 25.3931 4.30291 16.0437
O 25.5414 4.48978 14.6337
H 24.7753 4.91115 14.2753
C 11.9769 3.66261 7.92051
O 11.0956 4.48371 7.14987
H 10.3363 3.98051 6.89819
C 28.335 14.6575 29.3121
O 29.2047 15.4449 1.37712
H 1.31932 15.129 1.17361
C 19.1234 26.5053 2.00566
O 19.9434 25.4808 2.57385
H 19.3839 24.7289 2.4529
C 7.01789 7.32489 16.2623
O 8.21175 7.80734 16.8842
H 8.20309 7.61174 17.8087
C 4.09133 23.8292 9.20649
O 2.78653 23.4929 8.72763
H 2.19235 24.224 8.80135
C 24.2425 28.0388 16.8663
O 23.4196 26.8765 16.7371
H 22.9209 26.9395 15.9369
C 3.99244 23.5793 20.2557
O 5.26425 23.0839 20.6824
H 5.30003 22.9915 21.6222
C 25.0364 10.0133 7.82832
O 26.2285 9.54378 8.46344
H 26.3258 9.98308 9.29445
C 8.68305 18.2368 8.97264
O 7.49981 18.6383 8.27717
H 6.80045 18.0912 8.60056
C 16.608 22.0319 9.95426
O 17.1288 21.0174 9.09143
H 16.4735 20.7245 8.47676
C 13.592 22.1858 19.1218
O 14.4812 21.3162 19.8273
H 15.1813 21.7997 20.2386
C 11.3346 21.485 24.6429
O 10.1797 22.3282 24.6403
H 10.205 22.9235 23.9068
C 21.4016 10.0777 7.22869
O 20.2672 10.7725 7.75337
H 19.6571 11.0954 7.1079
C 8.90303 14.8468 6.55346
O 9.922 14.2996 7.39442
H 10.7586 14.6226 7.09628
C 0.712642 27.9923 19.7032
O 1.74017 26.9992 19.6507
H 2.39162 27.1982 20.3057
C 4.18273 19.8992 24.7507
O 3.40248 19.6607 25.9251
H 3.81064 18.9919 26.4535
C 17.1026 23.5722 28.1355
O 16.7639 24.3195 29.3067
H 17.1823 23.8987 1.28967
C 21.8775 3.82447 9.97462
O 22.1242 2.99175 8.83858
H 23.0598 3.08789 8.74709
C 26.6543 1.68292 24.2609
O 27.757 1.5523 23.3599
H 27.7725 2.31341 22.8
C 23.737 23.378 14.647
O 23.8572 22.0127 14.2389
H 23.0527 21.7759 13.8032
C 8.412 5.7776 23.9873
O 8.04862 5.51495 25.3452
H 8.49912 6.14906 25.8819
C 25.0353 11.6001 26.8289
O 26.1505 12.4322 27.159
H 25.6907 13.2567 27.2027
C 13.0646 1.85961 13.7888
O 13.9197 2.87298 13.2532
H 13.4049 3.65754 13.3648
C 14.3764 9.07967 17.1498
O 14.4872 10.4108 16.6392
H 13.6497 10.5093 16.2126
C 22.3419 29.2895 28.3115
O 23.2493 1.335 27.5468
H 23.0083 2.24021 27.6715
C 7.40019 27.5271 19.2012
O 7.68852 28.4287 18.1293
H 7.39767 27.9729 17.3543
C 28.1072 6.28887 7.77524
O 29.4169 6.8035 7.52071
H 29.3333 7.72824 7.34496
C 20.5082 3.59966 20.6021
O 20.7709 4.46601 19.4952
H 21.3171 4.07568 18.8301
C 10.9695 26.211 28.195
O 11.3926 25.8643 0.763733
H 12.0023 25.1423 0.762219
C 24.5383 10.5638 23.029
O 25.6191 10.7849 22.1191
H 25.2467 11.2824 21.407
C 14.2779 25.1038 25.6636
O 14.052 23.7336 26.005
H 14.041 23.2086 25.2193
C 9.40054 13.1268 18.5911
O 10.6629 12.5654 18.2223
H 10.6814 11.8409 18.8288
C 26.8144 3.40632 10.8762
O 27.1012 3.06281 9.51799
H 28.0259 2.9395 9.36707
C 17.6114 29.2305 8.58666
O 17.3519 27.8289 8.70087
H 18.1842 27.3818 8.67819
C 2.59528 24.418 23.1322
O 1.58084 23.4228 23.2916
H 1.73685 23.0718 24.155
C 15.4059 12.1455 0.954257
O 16.5433 12.3937 1.7847
H 16.6633 11.5955 2.276
C 10.2423 3.59092 27.4637
O 10.9661 4.82391 27.436
H 11.5052 4.79693 28.2117
C 11.9171 10.0654 19.872
O 10.5342 10.4286 19.896
H 10.1558 9.75888 20.4449
C 15.7571 24.334 13.1382
O 15.4796 25.5229 12.3937
H 14.6574 25.833 12.7415
C 22.5901 21.9265 25.8579
O 21.9718 22.6747 24.8078
H 22.1324 23.5938 24.9573
C 13.1619 0.890755 1.82244
O 14.4294 29.0572 1.51436
H 15.1404 0.757707 1.94137
C 5.40455 4.08871 16.2792
O 6.30412 3.07256 15.8285
H 6.7083 2.76147 16.6241
1500
 Atoms. Timestep: 10000
O 1.90109 17.8769 22.1845
H 2.24068 18.4313 22.9443
H 2.46284 17.0544 22.0949
O 20.3049 12.6522 24.9133
H 20.8008 12.9612 24.1017
H 20.0604 13.4422 25.4754
O 17.5258 15.3579 0.775556
H 17.1309 16.2223 1.08698
H 17.3547 15.2468 28.5491
O 4.61578 8.26152 4.32502
H 4.58148 9.23867 4.53482
H 5.26205 8.10339 3.57847
O 16.5419 20.871 24.4645
H 17.3657 21.2303 24.903
H 16.7802 20.4846 23.5735
O 17.7885 25.3206 18.1404
H 17.7953 24.8401 19.0174
H 18.7245 25.5649 17.887
O 5.33273 14.4333 17.1457
H 6.08337 14.8531 16.6355
H 5.47666 13.4451 17.1977
O 2.05499 11.1044 27.3179
H 1.9019 10.4227 26.6024
H 1.34885 11.0147 28.0203
O 4.62075 14.3919 12.0454
H 5.06406 14.8892 12.7912
H 4.34623 13.4854 12.3661
O 14.0893 4.56167 15.2951
H 14.8872 5.13692 15.1149
H 14.0806 3.79375 14.6546
O 6.09917 16.1634 14.0505
H 6.29375 16.1141 15.0301
H 5.51241 16.952 13.8664
O 2.93974 25.2353 3.50677
H 2.17634 25.8401 3.73341
H 2.79903 24.848 2.59559
O 14.1015 27.4337 13.1029
H 13.1936 27.5215 13.5127
H 14.1852 26.5376 12.667
O 18.0663 28.7677 25.8029
H 17.7109 28.9413 24.8845
H 17.5047 28.0726 26.2518
O 10.3758 11.561 25.6576
H 10.629 12.4152 26.1117
H 10.7639 10.7885 26.1602
O 16.6711 16.329 7.92003
H 16.0341 15.5641 8.0155
H 17.5352 16.101 8.36886
O 18.6569 16.1978 3.14518
H 18.414 15.7604 2.27934
H 18.2606 17.1153 3.1778
O 11.1528 26.3333 19.9943
H 10.7581 27.2392 19.8407
H 12.0705 26.2981 19.5987
O 8.25049 27.7549 5.52165
H 7.35773 27.5661 5.1126
H 8.95113 27.7532 4.80814
O 25.2381 15.5309 14.8197
H 26.1395 15.9036 15.0401
H 25.146 14.6206 15.2234
O 3.432 13.5126 22.1798
H 2.80564 12.9518 22.7213
H 3.33005 14.4726 22.4407
O 3.95408 20.7047 4.66382
H 3.12691 20.4825 5.17997
H 3.70112 21.1429 3.80131
O 10.1527 14.9691 29.1405
H 10.6038 14.9416 1.28
H 9.60559 15.8031 29.0692
O 21.9612 29.0177 14.0548
H 21.5558 28.1037 14.0679
H 22.423 29.1651 13.1801
O 29.2063 16.2741 27.9838
H 1.30354 16.7978 27.9225
H 28.6436 16.4564 27.1774
O 0.888149 26.0958 5.3008
H 0.940406 27.0178 4.91721
H 29.1558 26.1254 6.17488
O 6.19752 5.34928 1.95463
H 5.42775 5.24159 2.5838
H 6.79182 4.54728 2.0147
O 7.43288 2.78862 7.38747
H 7.32978 3.67123 7.84613
H 6.91171 2.7936 6.53403
O 8.73506 23.5306 9.27436
H 9.21269 24.2882 8.82951
H 8.50889 22.8337 8.59383
O 7.99147 16.8608 21.1799
H 8.73823 17.5049 21.0138
H 8.13447 16.0363 20.6324
O 6.22916 11.7205 17.2098
H 5.93135 10.7848 17.3991
H 6.42029 11.8183 16.2331
O 27.5469 18.1165 17.3636
H 26.9935 17.5953 18.0133
H 28.3874 18.4217 17.8114
O 16.9433 9.53791 23.1588
H 16.4097 8.7536 23.4753
H 17.7163 9.21634 22.612
O 10.4968 8.47149 21.4598
H 10.0406 7.59269 21.6
H 10.1068 9.15213 22.08
O 24.5901 15.0795 2.19209
H 25.2621 15.3822 1.51625
H 25.0639 14.6904 2.98215
O 22.5011 14.8525 6.37195
H 21.9483 15.1188 5.58233
H 23.2051 14.204 6.08247
O 20.8581 4.15297 27.376
H 20.237 3.59637 26.8242
H 20.7428 5.11716 27.1371
O 1.75083 11.8192 4.4953
H 1.71865 11.9961 3.51159
H 1.39281 12.6121 4.98841
O 17.1321 4.86543 26.9813
H 17.8878 4.2105 26.9742
H 17.137 5.38922 26.1294
O 4.14389 10.8974 4.36555
H 3.23903 11.2166 4.64721
H 4.65584 11.6575 3.96537
O 27.3521 10.9952 15.9579
H 28.3157 10.7673 15.8181
H 27.0285 10.5708 16.8036
O 15.533 5.32199 22.8343
H 14.7793 5.23434 22.183
H 15.304 6.0152 23.5177
O 24.4818 5.71661 21.0248
H 24.6579 5.60684 20.0466
H 23.5333 6.00191 21.1628
O 26.2823 2.19525 26.2836
H 26.4213 2.40362 27.2517
H 25.9819 1.24637 26.1867
O 28.325 2.17396 1.20257
H 27.3317 2.17776 1.31745
H 28.5618 2.60987 29.0868
O 27.3147 5.10551 5.34179
H 27.7119 5.92855 4.9358
H 26.3331 5.08064 5.15205
O 12.0627 20.0858 14.0566
H 11.4574 20.7021 14.5604
H 11.559 19.6684 13.3003
O 23.4546 7.83711 11.661
H 23.461 7.11283 12.3505
H 23.2949 8.71871 12.1051
O 4.22657 21.3036 13.7641
H 3.77354 21.0448 14.6172
H 4.90721 22.0123 13.9499
O 3.32014 4.50039 2.77114
H 2.7198 3.71519 2.92297
H 2.79043 5.34497 2.84917
O 17.6655 11.7777 24.411
H 18.6482 11.9537 24.47
H 17.5025 10.9961 23.809
O 28.0454 7.5159 4.4145
H 28.3349 7.97906 5.25216
H 27.2166 7.9509 4.06247
O 26.612 14.7882 23.7654
H 25.8226 15.3536 23.5264
H 27.0034 14.3936 22.9341
O 24.0543 8.97892 18.2594
H 23.9196 7.99757 18.3965
H 23.7748 9.22738 17.332
O 15.3284 17.357 27.177
H 14.8056 16.5139 27.303
H 15.4715 17.7962 28.0639
O 25.0257 3.74886 12.9866
H 24.2668 4.27437 13.3712
H 24.7843 3.43904 12.0669
O 7.65165 22.7072 24.9535
H 7.52569 22.4293 24.0012
H 6.76251 22.9184 25.3594
O 8.09733 14.209 13.643
H 8.46885 14.3533 12.7259
H 7.42473 14.9206 13.846
O 17.5092 8.14732 6.02048
H 17.6516 8.92285 6.63551
H 18.3347 7.58336 5.99847
O 0.928974 9.28636 6.05958
H 1.5943 8.54361 6.13487
H 1.26037 9.96559 5.40474
O 9.12567 21.7814 26.9899
H 9.01182 20.7975 26.8525
H 8.62827 22.2771 26.2779
O 6.38163 10.2538 24.0996
H 6.15208 10.8361 23.3197
H 5.6314 9.61524 24.2711
O 16.3017 6.71867 29.1584
H 16.5907 6.10626 28.4225
H 16.298 6.21983 1.27254
O 1.45302 2.1149 3.20705
H 0.746576 1.84776 2.55164
H 1.04116 2.65978 3.93744
O 16.6677 5.48625 7.94872
H 16.0523 4.69818 7.93136
H 16.1401 6.32423 7.80938
O 19.3978 5.38471 7.96365
H 19.8331 5.20179 8.84516
H 18.4314 5.5984 8.10706
O 25.62 13.7979 17.6948
H 25.2405 14.7127 17.8328
H 26.0013 13.4618 18.556
O 10.5306 16.2563 19.4704
H 9.59065 15.9902 19.2564
H 11.1325 15.4643 19.3687
O 2.48286 20.0595 24.2499
H 2.72089 21.005 24.0277
H 3.08085 19.7278 24.9795
O 28.4297 7.49979 26.2873
H 28.6891 7.94783 27.1429
H 27.4429 7.5872 26.1511
O 7.9131 19.4505 4.23212
H 7.29957 19.5457 5.01603
H 8.34837 20.3302 4.04073
O 7.94508 17.3019 2.53033
H 7.81215 18.1234 3.08482
H 8.31324 17.5588 1.63678
O 6.04234 19.6005 6.20971
H 5.79965 18.7372 6.65232
H 5.22383 20.0103 5.80708
O 28.2445 16.2617 25.1262
H 28.9891 15.6745 25.4436
H 27.5736 15.7105 24.6302
O 22.7718 17.0953 2.66172
H 23.0579 17.8149 3.29447
H 23.513 16.4327 2.55335
O 18.9555 22.4521 4.97807
H 19.3452 21.5313 4.96227
H 17.967 22.3934 5.11746
O 20.0607 9.28506 29.1061
H 20.0605 10.2147 29.4747
H 19.4288 8.71725 0.881095
O 11.5813 27.8774 14.7698
H 11.0921 28.0247 13.9102
H 11.5356 26.9097 15.0177
O 2.90696 9.03676 1.73189
H 3.37473 9.67782 1.12342
H 3.34752 9.04737 2.62955
O 21.9816 11.4734 15.8371
H 22.9446 11.7422 15.8537
H 21.4112 12.2628 16.064
O 10.2198 18.42 20.8607
H 10.8932 19.0184 21.2947
H 10.6923 17.7096 20.339
O 5.09255 9.01026 13.8682
H 5.33334 8.22875 13.2926
H 5.67863 9.02065 14.6784
O 18.1587 8.28801 2.13819
H 18.3159 7.45927 2.67528
H 17.2263 8.27915 1.77687
O 20.6459 25.6783 17.482
H 21.383 26.2523 17.1254
H 20.3018 25.0866 16.7529
O 20.8241 14.3257 22.7789
H 21.7857 14.4491 22.5337
H 20.4141 15.2158 22.978
O 25.5241 24.9878 7.04162
H 25.3392 24.019 7.20665
H 25.0073 25.2943 6.24226
O 8.16111 10.4758 26.1574
H 8.94914 11.0696 25.9951
H 7.50193 10.5859 25.4136
O 27.735 8.41396 23.4388
H 28.1965 8.18263 24.2952
H 27.1068 7.67707 23.1891
O 21.6488 7.06147 20.8044
H 21.5532 8.05082 20.9141
H 20.8169 6.68991 20.3922
O 11.2498 18.9227 0.97828
H 11.7547 19.6499 29.2658
H 11.7749 18.6046 1.76765
O 26.4249 6.01937 22.7992
H 25.8167 5.92904 22.0106
H 26.0274 5.54223 23.583
O 24.2562 15.6221 18.9844
H 24.9447 16.3164 19.1941
H 23.9469 15.1925 19.8328
O 21.3783 9.5223 21.7589
H 22.1128 9.9354 21.2205
H 21.6191 9.55149 22.729
O 28.2202 14.3812 21.6815
H 29.0628 13.8945 21.912
H 28.4289 15.3429 21.5034
O 7.09332 14.8053 3.46363
H 6.51847 15.2076 4.17616
H 7.54456 15.534 2.94847
O 29.0156 10.8551 22.4187
H 28.6132 9.93973 22.431
H 28.7052 11.3447 21.6039
O 20.872 27.1698 23.4179
H 21.736 27.4404 22.9933
H 20.1287 27.7244 23.044
O 29.1366 18.6386 4.86985
H 0.890576 19.4592 5.13462
H 0.642844 17.8798 5.46754
O 4.62938 22.2556 23.9602
H 5.37925 22.2813 23.2991
H 4.95411 22.588 24.8456
O 28.1466 17.14 21.601
H 27.4102 17.6006 22.0964
H 29.0299 17.4632 21.9407
O 10.5811 28.0711 8.8339
H 11.5266 28.3184 9.04569
H 10.146 28.8178 8.33076
O 11.7164 22.7039 26.7916
H 11.813 23.5743 26.3087
H 10.7515 22.4425 26.8175
O 14.619 16.8273 9.72662
H 15.013 16.519 10.5925
H 15.3526 17.001 9.06962
O 3.03449 17.3894 27.8165
H 3.69255 16.643 27.7174
H 3.15338 17.8221 28.7102
O 23.569 26.1637 11.8088
H 24.4366 26.588 12.0681
H 23.46 26.2077 10.8158
O 23.5084 14.1903 8.68307
H 23.1271 14.6178 7.86336
H 24.4987 14.3281 8.70097
O 16.6891 26.382 1.11836
H 17.3961 26.147 1.78541
H 16.0813 25.5989 0.98704
O 0.901267 19.4271 2.31266
H 29.2627 18.9398 3.0934
H 28.9201 19.7101 1.69491
O 4.33758 27.3188 13.8602
H 3.8978 27.9918 13.2654
H 4.65311 27.7682 14.6959
O 1.72549 6.84839 2.79906
H 1.97577 7.58528 2.17108
H 0.792703 6.9939 3.12881
O 29.2607 7.36706 17.1876
H 28.8009 6.96719 16.3947
H 0.724647 8.32503 16.9993
O 16.8485 9.92253 4.29862
H 16.8997 9.24441 5.03178
H 17.4521 9.64969 3.54946
O 14.9534 7.18849 6.72844
H 14.3688 7.11889 5.92014
H 15.6971 7.83209 6.54749
O 25.8024 3.0644 21.868
H 25.6723 3.23682 22.8444
H 25.8477 3.93543 21.3789
O 24.1732 17.9407 15.1863
H 24.7343 18.6821 15.5543
H 24.7171 17.1028 15.1395
O 16.4113 21.1586 14.1254
H 17.0274 20.4175 14.392
H 16.8596 22.0382 14.2846
O 1.47349 14.6773 4.40655
H 2.07397 14.567 3.61456
H 0.636527 15.1479 4.12729
O 19.1478 2.70446 25.7284
H 18.806 1.84086 26.099
H 18.8198 2.81786 24.7906
O 14.3603 23.2513 27.045
H 13.3852 23.0367 26.9884
H 14.7268 23.3818 26.1238
O 4.29117 25.5223 10.7801
H 4.29662 24.6631 10.2686
H 3.98498 25.3509 11.7165
O 29.0074 22.6979 15.0576
H 29.4384 23.5822 14.8779
H 28.0154 22.7861 14.9675
O 1.39966 12.92 23.8783
H 0.985644 12.0339 23.6701
H 1.27735 13.1252 24.8494
O 8.32032 10.8312 5.78222
H 7.87747 10.3339 5.03615
H 8.58127 11.7433 5.46614
O 11.4302 13.4827 27.0408
H 10.8343 13.7682 27.7915
H 12.3566 13.8225 27.203
O 22.6732 5.16497 12.6535
H 22.0087 5.51729 11.9945
H 22.4726 5.53631 13.5601
O 21.0589 15.2345 4.04192
H 20.0939 15.3222 3.79482
H 21.6053 15.8522 3.47641
O 6.43597 7.99879 2.10431
H 6.42758 7.01094 1.94916
H 6.67 8.46796 1.25277
O 10.6296 27.9687 11.8735
H 9.74544 28.4338 11.8292
H 10.8925 27.6645 10.9579
O 2.47428 7.08485 5.61846
H 3.27721 7.60081 5.31999
H 2.16712 6.48804 4.8772
O 15.744 27.9135 15.1825
H 14.9822 28.0696 15.8112
H 15.3872 27.6939 14.2745
O 25.2392 20.1301 19.7705
H 24.5406 20.6888 19.3236
H 26.0127 20.7084 20.03
O 7.23356 16.1558 16.3854
H 6.82053 17.0609 16.4859
H 8.1259 16.2439 15.9427
O 19.3904 24.8964 23.4282
H 20.1385 25.5528 23.5262
H 19.7399 23.9697 23.5662
O 8.02597 17.3445 11.9308
H 7.16873 17.1129 12.3907
H 8.47998 16.5058 11.63
O 8.94706 17.9034 28.8033
H 9.82066 18.2706 29.1226
H 8.65473 18.4013 27.9868
O 9.30081 13.0556 4.63816
H 8.55046 13.4532 4.11001
H 10.1726 13.4005 4.29027
O 7.17328 21.6464 7.51932
H 7.67952 22.2531 6.9065
H 6.85859 20.8453 7.01012
O 13.4217 28.1384 16.8541
H 13.1738 28.6226 17.6932
H 12.7802 28.382 16.1267
O 20.7467 28.2761 26.2031
H 19.7603 28.3606 26.0619
H 21.1929 28.081 25.3297
O 24.7252 16.5329 23.324
H 25.2651 17.281 22.9382
H 24.3286 16.8228 24.1951
O 25.3626 4.12661 24.6352
H 25.8575 3.4721 25.2067
H 24.4635 3.75457 24.4045
O 7.26917 5.05978 8.87983
H 6.45871 5.1933 9.45021
H 7.88216 5.84309 8.98311
O 27.952 15.7004 3.39124
H 27.6657 16.1326 2.53612
H 27.1596 15.5917 3.99142
O 3.34291 25.1171 13.2839
H 3.73018 26.0282 13.4253
H 2.43646 25.0714 13.7037
O 21.0713 26.5435 12.6542
H 22.0216 26.2671 12.511
H 20.5985 26.58 11.7737
O 15.2553 7.43053 24.4781
H 15.6772 7.74689 25.3278
H 14.2602 7.43856 24.577
O 26.7426 16.1604 0.790283
H 27.4586 15.8851 28.9013
H 26.7963 17.1466 0.9466
O 4.78394 10.0408 29.0176
H 5.54311 9.4533 28.7373
H 5.10105 10.9869 29.0826
O 25.7044 19.0168 26.3871
H 26.5963 19.0883 25.9407
H 25.3616 19.9328 26.5954
O 23.4679 6.2025 18.3061
H 22.8545 6.19655 19.0958
H 23.3266 5.37147 17.7681
O 16.1358 13.4846 8.8666
H 15.5041 12.7927 8.51685
H 16.6285 13.1177 9.6556
O 7.91722 15.1158 19.0158
H 7.454 14.2299 18.9912
H 7.63461 15.6618 18.2271
O 3.31154 5.98228 8.3226
H 3.2068 6.52235 9.15768
H 2.87508 6.45967 7.55998
O 10.0792 25.2936 7.59347
H 9.99808 26.1874 8.03461
H 10.1971 25.4177 6.60822
O 16.1121 25.1425 5.11247
H 15.3577 25.5591 4.60532
H 16.2238 24.1919 4.82272
O 12.7015 25.6131 7.12929
H 12.8921 25.168 6.2543
H 11.727 25.5327 7.33881
O 22.7652 17.9661 17.7714
H 23.2807 17.6705 16.9671
H 23.3793 18.4327 18.408
O 26.5458 18.4633 4.32393
H 26.166 18.8077 5.18252
H 27.4965 18.1881 4.46666
O 12.3007 23.6847 5.03541
H 12.1403 22.6977 5.02615
H 13.0563 23.9054 4.41877
O 22.3235 2.8873 14.509
H 22.3535 3.18205 13.5539
H 22.0605 1.9235 14.5523
O 8.75235 7.4745 9.38483
H 8.18931 8.24745 9.09237
H 9.35593 7.19975 8.63636
O 22.7955 2.8257 28.5963
H 22.1483 3.46226 28.1768
H 22.4025 2.45768 0.686401
O 20.7853 14.0222 16.5889
H 20.9854 14.6632 17.33
H 19.8176 13.7714 16.6174
O 7.10903 21.3347 22.7168
H 7.52979 20.9931 21.8764
H 7.06013 20.5961 23.3892
O 11.7186 5.3167 3.79399
H 12.2528 4.8447 4.49528
H 10.9004 5.71406 4.20946
O 12.2478 21.0842 4.98664
H 12.2039 20.5538 5.83322
H 12.0021 20.4993 4.21367
O 17.9639 10.3629 7.61775
H 17.7531 10.2903 8.59256
H 18.4258 11.232 7.44049
O 1.01246 2.91354 15.6784
H 1.61033 3.67487 15.9293
H 28.9431 3.26808 15.2325
O 12.4122 19.8653 21.8304
H 12.9461 19.6523 22.6487
H 12.9985 20.317 21.158
O 6.57444 18.9828 24.4816
H 5.64999 19.0075 24.8621
H 6.75204 18.0775 24.0958
O 9.23354 14.5961 11.2764
H 8.90087 14.2643 10.3936
H 10.2335 14.5868 11.2806
O 18.7634 8.74325 21.5201
H 18.8526 7.99256 20.8655
H 19.6716 9.08578 21.7604
O 19.5915 25.6574 14.7788
H 19.1727 26.5294 15.0323
H 20.292 25.8141 14.0825
O 22.9233 3.78604 17.0289
H 22.9286 3.49086 16.0735
H 23.8062 3.57461 17.448
O 6.44888 12.3612 14.5587
H 5.91781 12.0578 13.7676
H 7.16481 12.9912 14.2578
O 17.8156 23.5279 14.5454
H 18.6075 24.1383 14.5618
H 17.0538 23.9572 15.0306
O 18.2244 23.8435 20.3546
H 18.584 22.9235 20.5107
H 18.5473 24.4546 21.0774
O 5.3776 1.76298 9.24816
H 5.57424 0.837701 9.57249
H 6.02137 2.00565 8.52244
O 1.17968 13.6122 26.547
H 1.46922 12.7226 26.9003
H 0.834413 14.1732 27.2994
O 17.0112 19.9763 21.7992
H 16.7789 19.0058 21.7345
H 16.3099 20.5184 21.3363
O 17.571 2.19191 21.1666
H 17.1236 2.14303 20.2736
H 17.7031 3.14988 21.4212
O 9.44521 27.4042 2.8582
H 10.23 27.4467 2.23994
H 8.65325 27.8308 2.42131
O 4.58701 11.5514 12.8509
H 4.58359 10.6543 13.2927
H 4.59488 11.4339 11.8579
O 2.8689 17.581 17.4196
H 3.37488 17.0473 18.0972
H 2.22184 16.9862 16.9425
O 9.07919 1.03662 19.9089
H 8.42196 1.78212 19.7982
H 8.6058 28.9123 19.8252
O 1.92048 21.9976 3.1681
H 1.45888 21.1211 3.03164
H 1.30154 22.6317 3.63165
O 23.1006 0.666926 11.5239
H 23.7657 28.7089 11.2943
H 22.9912 1.28511 10.7456
O 1.72443 20.8422 6.17096
H 1.95418 21.7963 6.36317
H 1.26229 20.4445 6.96356
O 20.8239 0.706798 5.46684
H 19.8443 29.3082 5.33385
H 20.9873 1.0336 6.39769
O 26.9854 12.8646 19.9123
H 26.4324 12.1921 20.4042
H 27.397 13.4998 20.5657
O 6.77716 16.3042 23.6082
H 6.82254 15.3096 23.7011
H 7.13829 16.5724 22.7151
O 24.6992 22.0698 25.8756
H 24.3418 22.106 26.8088
H 24.0362 22.4789 25.2486
O 27.0069 18.7538 1.52347
H 26.4682 18.8771 2.35691
H 26.638 19.336 0.798967
O 22.2765 19.7867 14.7692
H 22.6564 20.4361 14.1104
H 22.9666 19.0994 14.9957
O 14.6229 21.171 20.7179
H 14.3746 21.3167 19.7602
H 15.1428 21.9576 21.0509
O 14.1011 21.5314 15.4196
H 13.4739 20.9419 14.9105
H 15.0338 21.3916 15.0871
O 5.78492 23.9241 13.4998
H 6.09091 23.9588 12.5484
H 5.03076 24.5676 13.6311
O 24.7162 11.8552 16.1384
H 25.5678 11.4275 15.8354
H 24.91 12.4913 16.8852
O 14.5712 21.8748 6.51066
H 13.758 21.7642 5.93931
H 14.318 22.324 7.36744
O 1.08821 18.9319 19.0307
H 1.79136 18.3953 18.5643
H 1.51641 19.6994 19.5078
O 15.723 23.5784 21.4565
H 15.1012 24.3146 21.1892
H 16.6322 23.7569 21.0804
O 20.141 15.1727 26.4228
H 19.2058 15.5246 26.3819
H 20.5808 15.4919 27.2622
O 12.346 18.4096 3.48917
H 11.571 17.8788 3.83228
H 13.1431 18.2503 4.07167
O 10.4668 25.5155 4.97973
H 10.0739 25.8194 4.11182
H 11.1626 24.8188 4.80488
O 25.4819 7.44022 9.94435
H 25.1868 8.01685 9.18251
H 24.8074 7.49013 10.6809
O 9.27823 10.1075 23.3736
H 9.68476 10.4102 24.2357
H 8.28467 10.0549 23.474
O 7.31707 1.51335 22.9189
H 7.32212 29.3207 22.5924
H 6.48237 1.68022 23.4438
O 11.5034 25.2801 15.0388
H 10.6437 24.7851 15.1646
H 12.2207 24.8463 15.5841
O 19.1063 21.3194 20.8064
H 19.8069 20.7656 20.3564
H 18.5177 20.7284 21.358
O 16.7818 15.2975 15.4109
H 17.4701 15.9959 15.2148
H 15.8688 15.6801 15.2686
O 17.8415 18.8101 3.2552
H 17.0733 18.7076 2.62326
H 17.5852 18.4507 4.15249
O 28.3918 18.9612 24.773
H 29.3559 19.1679 24.6058
H 28.2852 17.981 24.94
O 29.1764 29.3168 16.5744
H 29.1826 0.696501 17.5656
H 0.908435 1.32022 16.1342
O 15.4407 0.822287 11.7466
H 15.2172 1.7297 12.1025
H 15.2613 28.8873 12.4503
O 25.7093 19.849 16.4849
H 25.6093 20.6461 17.0805
H 26.4357 19.2588 16.8371
O 14.7107 24.3369 0.977595
H 14.23 24.0255 28.9104
H 15.5162 23.7641 1.1294
O 9.44259 0.89959 6.77729
H 8.85947 1.6911 6.96027
H 8.93428 28.9814 6.23713
O 1.26193 16.7254 6.23891
H 29.3336 16.3923 6.89125
H 1.60073 15.9605 5.69099
O 20.9256 19.8485 18.8973
H 21.5194 19.168 18.468
H 20.5568 20.4588 18.1963
O 14.263 14.6591 27.42
H 14.7753 14.1121 26.758
H 14.2893 14.2114 28.3138
O 29.2401 4.66015 11.8066
H 28.7739 5.17912 11.0901
H 1.47565 4.78981 11.7227
O 12.8603 10.5315 12.0636
H 13.0212 10.4106 13.0431
H 12.1882 9.86033 11.7509
O 16.2327 25.3623 15.9294
H 16.2945 26.3404 15.7308
H 16.5044 25.1968 16.8774
O 22.862 1.35688 26.3765
H 22.7994 2.04712 27.0974
H 22.2195 29.3676 26.5687
O 8.73247 22.9278 5.67034
H 9.23002 23.7894 5.77091
H 8.92202 22.5366 4.76976
O 19.243 18.4307 25.2118
H 19.9689 18.118 24.5993
H 18.6921 17.6484 25.5024
O 5.67257 12.6035 2.78287
H 6.06984 12.2577 1.9328
H 6.17646 13.4143 3.08064
O 23.1876 12.1298 5.76953
H 22.9903 11.7673 6.68038
H 22.4424 11.8908 5.14706
O 21.712 10.534 24.6709
H 21.1039 11.3242 24.7467
H 21.9299 10.1923 25.5851
O 25.8389 17.5235 19.852
H 25.5617 18.4786 19.7468
H 26.6201 17.4697 20.474
O 0.955916 25.3764 14.7325
H 28.7387 25.4111 14.9741
H 1.42562 26.1674 15.1245
O 27.7125 14.1821 15.5703
H 27.2354 13.6641 16.2803
H 27.349 13.9307 14.6733
O 26.3727 14.5496 8.67457
H 26.4945 13.8369 9.36543
H 26.8413 15.3826 8.96877
O 2.14491 27.3412 16.1995
H 1.56006 28.0957 16.4974
H 3.10431 27.612 16.2785
O 16.535 19.9169 7.31588
H 16.8363 19.9865 8.26688
H 15.6918 20.4405 7.19419
O 27.7116 4.17045 14.0788
H 26.7321 4.24899 13.8933
H 28.2219 4.27337 13.225
O 13.2874 28.6837 9.76396
H 13.8446 29.139 10.4584
H 13.6091 27.7449 9.64145
O 22.4323 27.5207 3.94765
H 22.0226 28.3559 4.31445
H 22.0417 27.3251 3.04811
O 4.65864 4.27034 10.2199
H 4.36396 4.6982 9.36547
H 5.03 3.36209 10.0271
O 13.6105 25.8245 18.1911
H 13.5257 25.0535 17.5601
H 13.5889 26.6811 17.6756
O 22.13 14.636 0.781938
H 22.7944 14.6234 1.52918
H 21.9505 15.5819 29.264
O 14.29 26.2328 9.17368
H 15.2361 26.0292 8.92208
H 13.6866 26.0137 8.40688
O 23.433 14.1929 22.4129
H 23.9092 14.929 22.894
H 23.8299 13.3129 22.6736
O 20.1354 22.4647 23.6918
H 20.08 22.0791 22.7708
H 19.6974 21.8425 24.3406
O 1.88305 28.4065 4.19572
H 1.83355 29.351 3.87078
H 2.81564 28.2056 4.49558
O 13.7625 23.9762 16.2678
H 14.4551 24.4664 15.7385
H 13.8032 23.0015 16.0482
O 27.4187 16.7677 9.58608
H 27.9401 17.4971 9.14329
H 26.8453 17.1579 10.3065
O 17.4244 17.993 5.84717
H 17.2246 17.1183 6.28867
H 17.1849 18.7411 6.46601
O 13.252 3.79987 5.59181
H 13.8622 4.14837 6.30332
H 12.9622 2.87201 5.82641
O 12.7529 2.78201 9.30435
H 11.9118 3.06505 9.76539
H 12.7996 1.78341 9.27964
C 24.3084 17.5544 8.14644
O 23.8304 17.3309 6.81734
H 23.3107 16.5469 6.90846
C 10.3427 20.7433 7.632
O 11.5597 20.0251 7.41279
H 11.4585 19.2034 7.86852
C 6.34915 24.242 27.6115
O 5.63751 23.741 26.4768
H 4.88388 24.3049 26.3932
C 9.06571 10.2478 2.57798
O 8.59394 9.25035 3.48761
H 7.80511 8.81461 3.20319
C 6.62263 24.4053 17.1746
O 6.82521 24.7202 18.5547
H 6.22696 25.3773 18.8761
C 19.6133 26.4564 8.78684
O 19.7442 26.5452 10.2081
H 19.0809 27.1563 10.4902
C 28.1918 21.9645 20.004
O 26.8507 22.0613 20.4908
H 26.8328 22.3617 21.3866
C 26.4296 28.4241 21.7795
O 25.4165 29.2355 21.1794
H 25.5352 1.37073 21.4809
C 16.4782 28.567 4.36756
O 17.8955 28.3772 4.36404
H 18.0135 27.6987 3.71698
C 12.7154 29.1801 6.16999
O 11.9819 1.58685 6.57371
H 11.0957 1.31913 6.76372
C 21.5194 15.4897 11.3829
O 21.3904 15.2452 9.97982
H 22.1232 14.7556 9.63883
C 1.17645 21.5259 11.9687
O 2.50992 21.2088 11.5611
H 3.07038 21.4104 12.2947
C 20.5101 22.6769 16.0894
O 21.0862 21.5083 16.6787
H 21.2973 20.8856 15.9999
C 3.4613 18.1505 12.8342
O 4.84529 18.2493 13.1801
H 5.05663 19.1651 13.0817
C 21.9887 3.69535 23.0917
O 22.8747 3.08963 24.0367
H 22.5021 2.30355 24.4058
C 1.31664 23.9184 8.23173
O 1.88975 23.4831 6.99605
H 2.43023 24.1195 6.55347
C 2.05066 27.8983 28.3113
O 3.13438 26.9674 28.3745
H 2.96033 26.4302 29.1322
C 23.7508 5.79854 6.27069
O 24.4154 5.5259 5.03422
H 23.8939 5.8042 4.29694
C 25.8007 27.3188 3.63018
O 24.8159 26.4381 3.08285
H 24.0334 26.9367 3.26188
C 19.2961 4.11195 15.7658
O 18.0073 4.33366 16.3444
H 17.405 4.35321 15.6165
C 3.59449 4.68227 13.5127
O 3.15893 5.20409 12.2546
H 3.72461 4.86238 11.5791
C 21.4543 10.7146 12.1967
O 22.2572 9.95634 13.1051
H 22.2722 10.5708 13.823
C 27.1906 26.5634 11.3948
O 25.978 27.1767 11.8401
H 26.175 27.9848 12.2885
C 4.22799 8.11676 10.6441
O 3.03546 7.33085 10.7157
H 3.11817 6.80069 11.4936
C 28.8935 4.15851 26.6705
O 29.3759 3.64855 27.9163
H 1.40183 4.15357 28.0954
C 22.432 26.3887 29.2915
O 22.002 27.4722 1.3673
H 21.1905 27.7674 0.983281
C 9.86115 28.4674 24.7352
O 10.4244 27.1597 24.6031
H 9.98309 26.7134 23.8966
C 22.8071 12.0752 19.6773
O 23.2851 10.8346 20.2039
H 23.2362 10.1975 19.5077
C 15.1517 12.4944 13.7606
O 16.2978 13.2903 13.448
H 16.4556 13.8617 14.184
C 5.04982 4.6496 23.9224
O 5.10794 5.54554 25.0354
H 4.81959 4.96952 25.7269
C 7.37954 28.8133 28.6335
O 7.58466 29.1076 1.26522
H 7.12706 28.5038 1.83018
C 20.1774 21.9326 1.8324
O 19.2222 22.8711 2.33416
H 19.163 22.679 3.25754
C 14.7102 27.2736 21.1354
O 14.4286 25.9242 20.7549
H 14.3858 25.9387 19.811
C 6.65877 8.33409 19.3747
O 6.00895 8.77942 18.1813
H 5.17001 9.13009 18.4387
C 8.20045 12.5764 28.9335
O 6.79836 12.296 28.9538
H 6.26831 12.7622 28.3254
C 11.5798 2.18921 16.9113
O 10.2866 1.59494 17.0512
H 10.1923 1.17335 17.8917
C 12.6143 13.3247 8.67202
O 11.597 13.2372 7.67085
H 11.6395 12.3715 7.29433
C 20.6345 8.84457 17.3431
O 21.8022 8.84309 16.5178
H 22.0875 9.72618 16.3395
C 4.2091 1.39437 1.49921
O 4.86296 2.24894 2.44105
H 4.38108 3.05825 2.36462
C 23.9464 6.26708 26.7076
O 25.3744 6.2062 26.6608
H 25.6738 5.55291 26.0471
C 24.2236 6.7717 15.3019
O 22.8554 6.75202 14.8864
H 22.3666 7.3436 15.4379
C 9.45552 21.8071 16.6521
O 10.0195 22.0129 15.3543
H 9.52969 22.7182 14.9597
C 14.3967 12.1103 25.2002
O 15.5017 12.8535 25.7212
H 16.3492 12.6859 25.3381
C 17.6268 12.0258 16.4795
O 18.2474 13.3138 16.4501
H 17.6255 13.9928 16.2377
C 1.79113 13.3272 19.3053
O 0.983257 12.1664 19.0941
H 28.8775 12.5407 18.9665
C 23.7371 20.3329 4.51738
O 23.5264 18.9188 4.54599
H 23.6828 18.6463 5.43723
C 10.0117 16.6585 5.63047
O 10.3363 16.8252 4.2478
H 9.58619 17.133 3.76232
C 6.46684 3.48422 27.1449
O 5.04581 3.5585 27.0032
H 4.53547 3.62656 27.7957
C 19.819 17.6641 29.201
O 21.155 17.1575 29.141
H 21.5017 17.2901 1.2575
C 11.8622 11.9695 21.5456
O 12.9329 12.562 20.8057
H 13.7441 12.182 21.1065
C 16.8004 7.00877 14.2831
O 16.2118 5.71361 14.1382
H 16.2363 5.57534 13.2037
C 11.0361 5.86894 13.7998
O 10.1442 4.89556 13.2504
H 9.80624 4.41175 13.9884
C 13.4014 19.7355 25.4095
O 14.104 19.5746 24.1744
H 14.9391 19.9964 24.3072
C 19.676 6.24049 12.2442
O 20.5441 5.93878 11.1486
H 20.5826 6.69422 10.5822
C 4.85918 12.2264 26.3102
O 4.503 12.6351 27.6334
H 3.68039 12.2218 27.8468
C 4.75776 28.6367 6.02308
O 4.37973 27.5859 5.12987
H 4.14983 26.8276 5.64479
C 21.483 8.80575 8.82441
O 21.2564 8.26077 10.1269
H 22.0974 8.16322 10.5466
C 25.8239 2.40837 6.53438
O 25.1604 2.21149 7.78575
H 25.7126 2.73451 8.34658
C 15.7803 2.24068 18.1945
O 17.1212 2.55209 18.5817
H 17.4546 3.12212 17.9057
C 25.5785 23.3355 13.662
O 26.1967 23.0545 14.9204
H 25.4715 22.9982 15.5237
C 21.0187 22.0069 8.29206
O 21.7519 21.6196 7.12701
H 21.1022 21.1941 6.58847
C 21.9178 25.017 25.6878
O 22.4402 23.9203 24.9334
H 21.7753 23.3911 24.5198
C 7.63437 7.06389 22.5899
O 8.77449 6.25714 22.283
H 8.56879 5.4225 22.6755
C 25.6358 10.2563 27.0136
O 25.9058 11.4521 27.7498
H 25.724 12.2352 27.253
C 20.9263 15.6943 19.9345
O 21.0042 15.7907 18.5099
H 21.5502 16.5269 18.2798
C 24.9154 27.4662 25.4811
O 24.9768 28.5128 26.4536
H 24.2378 29.0982 26.3892
C 16.2224 1.86056 28.1808
O 15.0411 1.08012 27.98
H 15.3622 29.0416 27.5748
C 10.7079 16.9485 9.55358
O 11.6048 17.7919 8.82616
H 12.4585 17.608 9.18722
C 17.2278 15.4659 24.5979
O 17.5943 16.354 25.6572
H 16.8247 16.7054 26.0782
C 7.02317 25.958 23.9741
O 7.75271 26.7225 23.0108
H 8.35989 26.1774 22.5341
C 12.7014 1.52227 20.5798
O 11.7769 29.4299 19.8895
H 10.9076 0.926658 20.1637
C 26.8526 26.602 17.3445
O 27.39 26.6519 16.0203
H 27.6984 27.5387 15.913
C 11.345 9.63871 28.5545
O 10.9126 9.15489 27.2802
H 11.1045 8.23026 27.3157
C 13.2857 4.46122 27.2774
O 12.2286 5.42421 27.2876
H 12.025 5.66081 28.1795
C 17.7018 21.0835 17.7477
O 17.3776 20.1547 16.7098
H 16.4611 19.947 16.8099
C 13.1965 21.6531 9.93586
O 13.655 22.6635 9.0338
H 13.1498 23.4304 9.25691
C 13.0895 21.8645 1.24354
O 12.7668 21.0419 28.8717
H 12.2754 21.5402 28.2367
C 21.3849 17.7451 22.6584
O 21.0679 17.007 23.8415
H 21.8667 16.7295 24.2633
C 5.37645 28.9385 25.3177
O 5.05894 1.10188 24.2664
H 4.13053 1.27814 24.2683
C 15.094 26.6809 26.9509
O 16.1981 27.455 27.427
H 16.4459 27.0124 28.2244
C 16.1011 12.6191 21.1811
O 15.2463 11.5326 21.5469
H 15.7689 10.8391 21.9197
C 3.35935 15.49 24.7669
O 3.7381 16.0284 23.4974
H 4.67689 15.9343 23.4441
C 5.15952 22.0972 2.02611
O 6.17484 21.9906 3.02743
H 5.84808 21.5252 3.78219
C 19.1469 27.5673 20.8422
O 19.3512 28.5932 21.8172
H 19.0422 29.4141 21.4655
C 8.24263 13.4382 24.0028
O 6.87459 13.8441 23.9099
H 6.49618 13.0841 23.4949
C 24.5046 10.8272 8.78867
O 25.1475 9.65195 8.2885
H 26.0671 9.85078 8.1992
C 14.2391 18.4734 18.2381
O 14.7236 19.2135 17.1145
H 14.1172 19.8932 16.8628
C 5.74151 11.954 9.29095
O 4.46352 11.9536 9.93254
H 4.10068 12.8231 9.8594
C 4.61883 14.3711 6.16385
O 5.72763 15.2406 5.91978
H 5.6956 15.9612 6.53029
C 0.767704 7.15467 13.9965
O 28.3545 6.8178 14.7532
H 27.9278 6.06844 14.3666
C 5.83902 11.6825 20.8782
O 5.59565 11.9626 22.2592
H 4.95414 12.6525 22.3329
C 2.29449 26.1639 25.1791
O 3.37874 25.6694 25.9695
H 3.26836 26.0907 26.8082
C 6.93892 27.0712 9.3488
O 6.10696 27.7209 10.3135
H 5.43073 27.106 10.5537
C 12.4119 13.6247 3.47082
O 11.5067 14.674 3.11803
H 11.7223 15.4131 3.66592
C 27.2671 9.16954 19.2459
O 26.6917 9.26417 17.9402
H 25.758 9.22928 18.0819
C 11.7974 9.58792 6.86508
O 11.0325 10.7516 6.54013
H 10.1671 10.4912 6.26373
C 16.9519 16.3611 20.6977
O 16.4586 17.4308 21.5085
H 15.8356 17.0554 22.1118
C 20.0677 19.8902 12.5415
O 20.4816 20.8715 11.5872
H 19.8296 21.5555 11.5882
C 16.7243 3.93203 11.2815
O 15.9744 5.06887 11.7175
H 15.2572 5.08773 11.1025
C 1.90196 1.00863 13.4377
O 2.69973 28.9974 12.5293
H 2.64846 29.3263 11.6449
C 19.0116 28.5904 16.6301
O 18.372 27.8046 15.621
H 17.4839 28.1164 15.5367
C 12.6908 15.0499 12.8302
O 11.8548 14.2489 11.9909
H 11.8184 13.3597 12.3087
C 1.89212 24.8413 18.2364
O 2.79407 25.4631 19.1554
H 2.84654 24.829 19.8541
C 2.79071 9.20768 19.9349
O 3.73344 9.95075 19.1577
H 3.41947 10.8419 19.1768
C 9.91327 18.7226 25.6804
O 8.68455 19.0682 26.3251
H 8.07963 19.4053 25.682
C 5.65045 19.6795 16.2022
O 5.51491 18.2803 16.4645
H 4.69946 18.2686 16.9419
C 25.4253 14.2214 11.7532
O 26.5262 13.5341 11.1527
H 26.583 12.7163 11.6227
C 26.4998 25.1444 29.1255
O 25.8484 24.301 1.32668
H 25.6849 24.8293 2.093
C 2.73719 28.546 9.41963
O 2.70508 1.10533 9.98789
H 3.43263 1.59628 9.63766
C 23.5214 6.41656 1.84405
O 22.9654 6.21497 3.14604
H 22.0293 6.09385 3.10215
C 13.2936 14.3562 18.0743
O 12.2479 14.313 19.0487
H 12.5413 13.8097 19.7928
C 11.9251 6.16178 17.6423
O 12.9485 5.16357 17.6082
H 13.26 4.97001 16.7373
C 26.5502 2.7389 17.6798
O 25.5341 3.0863 18.6242
H 25.6022 2.45966 19.3282
C 2.14652 20.9602 17.0401
O 2.45382 21.2216 15.6682
H 1.63806 21.517 15.2936
C 8.32978 5.88725 4.70414
O 9.42293 6.80294 4.81112
H 9.23104 7.45288 4.1525
C 8.97556 2.3785 3.42803
O 7.92728 2.89167 2.6018
H 7.68412 2.09654 2.15273
C 11.3092 7.34659 24.5245
O 12.6088 6.93512 24.9564
H 12.3672 6.38977 25.6894
C 8.44873 4.4337 16.5587
O 9.01709 3.66331 15.4965
H 9.30759 2.91076 15.9887
C 17.4791 16.0249 12.3819
O 17.075 16.2796 11.034
H 17.8978 16.354 10.5752
C 4.88788 4.23444 5.50389
O 5.91076 3.2871 5.18582
H 5.48991 2.78752 4.50292
C 23.545 27.5201 8.22731
O 23.976 26.346 8.92057
H 24.541 25.9464 8.27709
C 18.851 3.51384 4.98641
O 18.8032 4.92517 5.21175
H 18.9845 5.20261 6.09673
C 2.50085 14.4523 15.656
O 1.39774 15.3059 15.9714
H 0.641948 14.8569 15.6247
C 27.5241 7.93339 29.3793
O 28.6898 8.63706 28.9423
H 28.6799 9.3831 0.769758
C 10.4433 16.7839 15.1772
O 9.22606 17.5331 15.1324
H 9.36239 18.2284 14.5071
C 29.0091 5.73974 20.4143
O 29.2046 5.41525 21.7932
H 28.4266 5.6976 22.2494
C 13.891 17.6105 6.34062
O 14.5866 17.8821 5.12108
H 15.3855 18.2625 5.45275
C 28.2332 11.4392 8.49295
O 27.6427 10.397 7.71184
H 28.4001 9.91024 7.4247
C 15.4741 1.60897 23.6077
O 16.8133 1.10984 23.6557
H 17.2694 1.39862 22.8801
C 4.08211 21.2381 20.223
O 2.79945 20.6704 20.5013
H 2.84108 20.4306 21.4144
C 4.97075 23.9402 5.88452
O 3.90404 24.8926 5.88982
H 3.51192 24.8601 5.03063
C 25.8204 4.14363 29.0874
O 25.6132 2.74287 29.2871
H 24.7189 2.54743 29.0526
C 12.8339 5.5993 21.0031
O 13.7543 4.67765 20.4129
H 13.7322 4.88958 19.4922
C 22.5797 17.864 26.3553
O 23.6727 17.4735 25.52
H 24.3639 17.974 25.9259
C 3.3485 7.97464 24.0791
O 4.72364 8.24859 24.3599
H 5.12705 7.42132 24.5741
C 24.6493 19.6391 11.4682
O 26.0376 19.435 11.1927
H 26.5078 19.3227 12.0047
C 9.36562 3.92386 24.6494
O 8.62084 3.86827 23.43
H 8.26325 3.00906 23.2659
C 6.52854 8.48954 7.26617
O 7.62913 9.21926 7.81492
H 8.15377 9.61227 7.13424
C 27.1468 10.0685 11.9006
O 26.9261 11.3115 12.5724
H 27.1022 11.1854 13.4922
C 9.09811 24.5126 12.8787
O 8.52959 23.8155 13.9903
H 7.58689 23.8283 13.9258
C 9.62455 23.5812 21.5586
O 9.66602 25.0021 21.714
H 10.1112 25.3895 20.9759
C 16.5132 14.2441 4.47947
O 16.383 13.2554 3.4546
H 16.6393 12.4395 3.85659
C 22.0833 24.78 5.974
O 23.2013 25.6285 5.70022
H 22.968 26.2394 5.01801
C 13.1321 8.48562 14.8382
O 13.764 9.75758 15.005
H 13.8405 9.92752 15.9314
C 7.48869 29.1634 13.1915
O 8.15298 28.9139 11.9499
H 7.57221 28.4157 11.3954
C 16.2221 20.6936 28.0947
O 15.4448 19.6921 28.7562
H 14.5508 19.9341 28.5688
C 2.1725 23.3396 28.4491
O 2.45368 23.8616 0.9979
H 2.15364 23.1817 1.5816
C 4.48867 15.7415 20.3016
O 4.14789 15.9156 18.9237
H 4.6755 15.3567 18.3739
C 0.783065 14.9132 12.3052
O 28.6969 13.7945 12.6055
H 28.0727 13.6607 11.9087
C 28.4271 12.164 1.70584
O 28.4711 11.6294 29.1327
H 27.6259 11.7001 28.7161
C 18.7181 29.0333 12.0717
O 17.9146 28.4072 11.068
H 17.0859 28.8613 11.074
C 5.79198 22.235 10.4738
O 6.66286 23.2991 10.8665
H 7.55388 23.2934 10.5518
C 8.48248 27.3619 17.6631
O 8.20481 27.2944 19.0642
H 8.13903 26.3848 19.3118
C 3.67242 5.67874 17.7808
O 2.56759 5.10144 17.0801
H 1.9221 5.78919 17.0222
C 24.1131 22.8408 18.0792
O 23.6967 21.4739 18.0238
H 22.8451 21.5058 17.6153
C 19.6516 17.7095 15.7726
O 18.2304 17.8061 15.6469
H 18.0438 18.6635 15.9976
C 18.6651 12.6546 11.0935
O 17.2497 12.4722 11.0013
H 16.9804 12.7853 11.8512
C 17.8098 6.36738 19.1963
O 19.0955 6.46231 19.815
H 19.552 5.69485 19.5058
C 27.4423 23.2174 4.46528
O 28.6397 23.6389 3.807
H 29.1102 24.3437 4.22534
C 27.7418 18.6321 14.2346
O 26.8983 19.7235 13.8575
H 26.6261 20.1806 14.6385
C 20.7327 18.6579 5.58213
O 19.801 19.6285 5.09732
H 19.0435 19.0723 4.99834
C 15.7723 2.3304 8.10158
O 14.864 3.40425 7.8432
H 14.0217 3.33457 8.26575
C 17.3621 23.8829 8.38542
O 16.6889 25.0848 8.00192
H 16.5882 25.0996 7.06242
C 13.556 26.8379 3.14794
O 13.9565 25.4845 3.37784
H 14.1292 25.11 2.5276
C 13.3146 15.9202 23.4725
O 14.1531 17.0079 23.0739
H 13.9307 17.739 23.6298
C 20.8165 7.37179 25.95
O 20.0703 6.75228 27.0009
H 20.0644 7.36828 27.7175
C 21.8416 11.7327 27.6517
O 22.0853 10.348 27.391
H 21.7086 9.86843 28.1129
C 27.6851 27.7769 8.01291
O 27.861 26.5588 7.28489
H 26.9993 26.193 7.41405
C 2.81299 15.8217 9.27877
O 4.20299 15.687 9.58646
H 4.24792 15.2106 10.4013
C 28.4081 20.05 8.75863
O 29.1335 18.8334 8.56242
H 1.25813 19.0312 8.85303
C 19.701 5.18266 2.01556
O 20.0387 5.96885 3.16131
H 19.7122 5.43096 3.86635
C 25.3268 19.6933 23.0606
O 26.3829 18.7298 23.0269
H 27.0563 19.0404 23.6128
C 0.827778 2.80056 6.54399
O 0.777386 3.54318 5.32297
H 28.7838 4.12292 5.30763
C 19.2767 17.8836 8.8964
O 19.1619 16.5111 9.28111
H 20.0136 16.1433 9.46089
C 18.7917 5.65929 23.0621
O 18.0029 4.49472 22.8044
H 17.1239 4.8236 22.6936
C 2.32618 10.3891 15.7833
O 1.39502 10.0256 16.806
H 1.63718 10.4692 17.6045
C 7.73447 19.9525 19.1275
O 8.31384 20.4709 20.3277
H 9.08484 19.9361 20.4402
C 19.1764 12.7517 1.76842
O 20.4136 12.0456 1.89384
H 21.0739 12.6568 1.60495
C 9.82282 10.7831 10.3911
O 10.317 9.55957 10.9422
H 9.78892 8.93973 10.4627
C 28.0566 22.6154 25.9619
O 27.1296 21.9613 25.0915
H 26.2881 22.2037 25.4465
C 5.83597 26.4854 2.19211
O 6.07111 27.706 2.89898
H 5.39815 27.7448 3.56129
C 19.9483 1.28466 9.02413
O 21.0602 1.72272 8.23884
H 21.8467 1.78233 8.75925
C 9.21753 21.6635 1.6016
O 8.67253 22.246 2.78846
H 7.73036 22.173 2.79049
C 7.11298 5.91277 12.0251
O 6.66568 7.02238 12.8084
H 7.47743 7.49703 12.9022
C 26.4131 13.0439 5.64593
O 25.4978 13.5311 4.66115
H 24.6827 13.0646 4.76656
C 16.6904 9.45741 27.0357
O 15.9943 8.20829 27.0305
H 16.303 7.76853 27.8079
C 6.31575 15.4135 27.4472
O 4.9158 15.4464 27.7369
H 4.67093 14.5998 28.0779
C 16.0352 21.6126 3.44957
O 16.2507 22.5375 4.51868
H 15.8024 22.224 5.28925
C 19.9351 21.1662 26.6588
O 18.9005 20.9092 25.7057
H 18.9489 19.9676 25.6422
C 14.9695 16.8533 1.97224
O 16.0767 17.6671 1.57651
H 15.7468 18.4452 1.15376
C 24.8389 22.0628 8.93045
O 24.1482 22.5059 7.75938
H 23.3351 22.0477 7.61075
C 20.8064 9.82921 4.4518
O 21.0229 11.2425 4.42764
H 20.6766 11.6757 3.66253
C 15.4255 5.15398 3.37805
O 16.7207 5.71371 3.14542
H 17.1597 5.69789 3.98212
C 23.203 2.59191 3.42513
O 21.8605 2.25 3.07042
H 21.4166 1.79993 3.77287
C 9.71803 3.10492 10.6494
O 11.0235 3.64894 10.861
H 10.9116 4.1539 11.6519
C 23.1113 26.4671 21.3445
O 23.2238 27.6567 22.13
H 23.6801 28.2913 21.5988
C 13.1975 8.4547 3.28111
O 13.2448 7.8304 4.56677
H 12.4918 7.26663 4.65714
C 12.9052 6.44522 10.5451
O 13.4964 5.1512 10.6898
H 13.0846 4.54414 10.094
C 14.6055 17.9533 13.9326
O 14.7667 17.2069 15.1416
H 15.0426 17.796 15.8271
C 6.63373 4.03353 20.3535
O 6.37945 2.66582 20.6845
H 6.97821 2.49128 21.3945
C 14.5636 11.2602 6.06137
O 15.221 11.3246 7.32966
H 16.0261 10.8502 7.18893
C 3.66283 17.5351 2.47611
O 3.34001 18.4349 1.41256
H 2.55381 18.8251 1.76278
C 3.21031 6.54307 28.4525
O 2.48156 5.38366 28.8643
H 2.72062 5.28065 1.0202
C 8.6754 20.5959 12.0809
O 9.51061 19.4947 12.448
H 9.06746 18.6999 12.1931
C 9.11695 8.93136 14.4545
O 8.83831 8.66934 13.0766
H 9.13283 9.32545 12.4636
C 24.3011 14.2386 26.5416
O 25.5681 13.591 26.3997
H 26.0627 14.1842 25.8551
C 1.10773 0.969954 24.4993
O 2.20661 0.870314 23.5897
H 1.9513 1.47407 22.909
C 26.5143 0.924531 14.2506
O 26.0423 0.750044 12.9121
H 26.0046 1.6178 12.5398
C 10.6389 5.37784 7.63909
O 10.1238 6.6646 7.28723
H 10.2043 6.85299 6.3647
C 2.4248 14.3754 1.07339
O 2.96387 13.8393 2.28457
H 3.89473 13.6765 2.27926
C 19.7593 25.9043 3.0724
O 18.3296 25.9078 3.10169
H 18.0977 25.0931 3.52081
C 9.86504 9.95951 18.4042
O 10.922 9.01811 18.608
H 11.012 8.98449 19.5481
C 3.84256 19.8762 8.64889
O 2.7475 19.5718 9.51669
H 2.80178 20.0269 10.3431
C 23.8771 26.5053 15.2316
O 23.0766 25.3256 15.1204
H 22.6293 25.4006 14.2914
C 1.90278 23.7286 22.0731
O 3.05891 24.0572 21.2983
H 3.82935 23.6476 21.6612
C 25.1947 9.13883 4.99009
O 26.1446 9.21115 3.92357
H 26.0303 10.0392 3.48278
C 6.7003 17.4207 8.57001
O 5.47669 17.3967 7.83035
H 5.00331 16.7222 8.29293
C 16.6469 19.3929 10.6974
O 17.1061 20.4885 9.90132
H 17.2623 21.2368 10.4569
C 12.6551 22.7103 18.9125
O 13.9552 22.3247 18.4586
H 14.3827 23.1049 18.1399
C 12.2476 24.6475 24.1374
O 12.0943 25.2585 25.4211
H 11.4088 25.8953 25.288
C 19.4938 13.7491 7.11785
O 18.4462 12.7831 7.23859
H 17.8492 13.0786 7.9089
C 8.09604 13.9406 7.82757
O 9.18515 13.8556 8.75035
H 9.91237 13.4619 8.29302
C 0.944326 28.6552 19.8201
O 29.1604 1.05247 19.1604
H 29.1905 1.65955 19.884
C 4.57999 20.5951 27.1004
O 4.28973 19.5303 26.1911
H 4.17292 18.7607 26.7269
C 18.0025 23.758 28.3589
O 17.2976 23.5179 0.827143
H 17.9587 23.3044 1.46783
C 23.014 3.88673 9.74186
O 23.2382 2.47845 9.63518
H 23.9862 2.3543 9.07119
C 3.16614 3.32601 20.8888
O 1.90556 2.8739 21.3902
H 1.51341 3.72738 21.4942
C 22.5546 23.0268 11.8016
O 22.4053 22.1412 12.9144
H 21.7291 21.537 12.6482
C 6.66374 7.77748 27.3986
O 7.06149 8.94675 28.1194
H 7.58281 9.44005 27.5046
C 23.966 11.3941 2.05322
O 25.3249 11.0492 1.77156
H 25.5342 11.1126 0.852233
C 12.5535 2.24298 13.0337
O 13.6715 3.01584 12.5891
H 13.4586 3.6849 11.9566
C 16.1446 9.19144 10.4862
O 17.2772 9.97183 10.0951
H 17.2326 10.8064 10.5362
C 19.348 0.990531 29.3287
O 19.6668 28.4129 28.9117
H 19.6212 28.2897 27.9759
C 4.66379 28.2118 19.786
O 4.86751 27.0079 19.0417
H 4.02248 26.5979 19.1457
C 28.533 6.14994 8.70223
O 27.6549 5.78447 9.77008
H 26.8929 6.34314 9.75679
C 20.3825 3.29105 19.585
O 20.5238 4.42433 18.7243
H 21.0819 4.10317 18.0327
C 11.3061 27.1139 28.1982
O 11.201 27.7804 0.706474
H 11.8138 28.4995 29.439
C 25.2461 10.745 22.8239
O 25.5848 10.7839 21.4352
H 24.8036 10.9215 20.9215
C 16.529 24.3381 24.8136
O 15.3637 23.6301 24.3826
H 15.4418 23.46 23.4563
C 10.9464 12.7496 15.4004
O 10.1808 12.1882 14.331
H 9.53868 12.8547 14.1402
C 27.1585 2.23567 10.2414
O 26.6448 3.33388 9.48318
H 26.9116 4.16377 9.84803
C 18.6774 23.9353 11.6021
O 18.4546 22.526 11.6975
H 17.9845 22.3571 12.4996
C 26.6846 24.372 22.5617
O 27.603 23.3563 22.9738
H 27.3765 22.8461 23.7362
C 15.0513 11.7932 0.904242
O 15.078 13.2228 0.928977
H 15.6211 13.3066 1.69778
C 9.84 5.89953 0.877332
O 11.2485 6.07184 1.05449
H 11.3998 5.97053 1.98179
C 14.1161 10.2492 18.7748
O 13.3409 9.76194 17.6764
H 12.5234 9.43324 18.018
C 15.0605 24.0551 11.9358
O 14.3116 25.2678 11.8197
H 14.2827 25.5014 10.9045
C 23.9774 21.231 0.768136
O 24.3806 22.3513 28.7287
H 24.8304 23.0005 29.2476
C 12.5364 1.88768 1.77538
O 12.7531 1.01393 0.664299
H 13.6166 1.16681 29.0647
C 4.61524 1.04319 16.4189
O 4.75167 28.3902 16.1935
H 5.25498 27.997 16.89
1500
 Atoms. Timestep: 20000
O 2.28899 15.3545 23.6991
H 1.98877 15.3403 24.6529
H 3.28581 15.2837 23.6624
O 18.3001 15.5598 26.4716
H 18.4781 16.5006 26.1829
H 17.3349 15.4627 26.7145
O 17.6754 18.5864 25.4203
H 16.7465 18.2291 25.518
H 17.8388 18.8332 24.4651
O 5.18096 7.5004 6.97112
H 4.67055 8.35808 7.03329
H 5.68466 7.47411 6.10765
O 18.6112 20.1773 21.4965
H 18.1456 21.0622 21.4798
H 19.5234 20.273 21.098
O 17.8231 26.075 18.5065
H 17.2123 26.8382 18.2953
H 18.5406 26.0203 17.8121
O 8.15118 13.7817 16.1002
H 7.56393 14.0384 15.3326
H 7.61749 13.2655 16.7701
O 27.8433 10.3029 22.9493
H 28.3608 9.54605 22.5501
H 27.0023 9.95132 23.3605
O 6.0503 17.8729 11.1503
H 5.59671 18.2678 11.9492
H 6.91913 17.4635 11.4288
O 13.1703 5.7046 19.2246
H 13.8656 6.14305 19.794
H 13.0993 6.18922 18.3527
O 7.47974 17.3809 14.3562
H 8.01478 17.772 15.105
H 6.68271 17.9583 14.179
O 1.99255 22.3631 6.16673
H 1.87242 23.319 5.89897
H 1.7562 21.7693 5.3976
O 12.2861 26.2422 11.4766
H 12.2746 25.3972 12.0113
H 11.4308 26.3246 10.9651
O 21.9647 2.4561 25.6712
H 22.5397 2.36894 26.4847
H 22.3928 1.97358 24.9071
O 10.9633 10.3496 27.4882
H 11.3934 10.9082 26.779
H 11.3631 9.43304 27.4788
O 16.7442 16.8483 10.3588
H 17.3009 17.5315 10.8315
H 17.0107 15.9335 10.6622
O 14.2398 15.1149 28.066
H 14.8841 14.8974 28.7992
H 14.4119 14.5172 27.2829
O 11.3822 1.59631 20.0888
H 11.004 1.41321 19.1813
H 12.0001 2.38103 20.0402
O 9.21461 28.6558 5.14766
H 8.89788 27.9146 5.73944
H 8.77986 28.5752 4.25073
O 25.7142 15.7123 13.7385
H 26.6518 15.723 14.0861
H 25.2048 14.9715 14.1763
O 7.88381 11.6303 21.1587
H 8.36151 10.7523 21.1299
H 7.36671 11.7564 20.3121
O 0.963849 20.5028 7.85308
H 29.1724 21.1344 8.40545
H 1.66352 21.014 7.35399
O 11.1831 14.6778 26.1021
H 11.3409 15.27 26.8923
H 10.1998 14.5524 25.9706
O 23.6787 0.907944 13.0332
H 22.9841 28.9728 13.2447
H 23.6801 1.08869 12.0497
O 28.4149 20.6801 2.13792
H 28.7071 20.414 1.21934
H 28.2266 21.662 2.15637
O 2.47164 26.9128 4.83794
H 1.97296 27.4698 5.502
H 2.05573 26.0049 4.78531
O 7.22918 3.24964 28.7617
H 6.32212 3.31689 28.3461
H 7.13474 3.11719 0.995903
O 6.95625 3.14973 6.92803
H 6.42367 3.93529 7.24308
H 6.67645 2.90841 5.9988
O 8.94733 27.0179 7.54133
H 9.66744 26.7459 8.17966
H 8.31079 27.6371 8.0011
O 7.16399 17.2786 22.0994
H 7.01746 18.2659 22.1611
H 7.98719 17.0968 21.5615
O 5.5242 11.2277 16.6101
H 5.58993 10.2419 16.4557
H 4.89515 11.6282 15.9439
O 27.3481 21.9412 21.3677
H 27.8909 22.4898 22.0036
H 27.7845 21.0507 21.2392
O 16.6743 14.7699 21.0026
H 15.9642 15.0453 21.6506
H 17.5649 14.7869 21.457
O 10.1014 9.74902 21.8171
H 10.8518 10.2608 22.2354
H 9.87936 8.95768 22.3867
O 23.0773 15.3283 2.75159
H 23.0387 15.972 1.98722
H 23.0796 15.8347 3.61391
O 17.6608 14.0284 6.97298
H 17.6224 13.7774 7.9402
H 18.1403 13.3149 6.46221
O 19.2453 3.52434 25.2486
H 19.9908 2.86355 25.1608
H 18.4866 3.25138 24.6572
O 1.58507 10.1786 4.38112
H 2.45652 9.88692 3.9868
H 1.6388 11.1458 4.62964
O 16.0105 7.08386 25.8586
H 15.3194 7.30056 26.5481
H 15.6624 6.37042 25.2505
O 6.22888 13.9465 5.80913
H 6.72631 14.1988 4.97912
H 6.53031 14.5249 6.56716
O 1.73281 11.2907 17.5242
H 1.73284 10.3055 17.6957
H 0.813014 11.6546 17.6711
O 14.3423 3.94661 22.3656
H 14.0107 4.4443 23.1671
H 14.7925 4.58396 21.7403
O 21.6545 6.60856 21.3856
H 21.6098 6.72545 22.3778
H 21.1009 7.31312 20.9417
O 23.1563 27.5771 1.11588
H 23.2076 27.3788 28.8896
H 23.4141 26.7622 1.63504
O 28.011 29.2874 3.64389
H 28.256 28.4432 3.16713
H 28.506 1.30285 3.2375
O 28.0317 6.09127 3.86274
H 28.1501 6.99734 3.4565
H 27.1568 5.70604 3.5691
O 13.5941 19.3156 13.4411
H 12.6003 19.2903 13.3322
H 14.0107 18.614 12.8631
O 25.0843 7.59119 10.9714
H 24.7057 8.32449 11.5361
H 25.6886 7.98299 10.2776
O 5.26544 21.7273 13.7197
H 5.27625 21.6117 14.7129
H 5.75028 22.5675 13.4766
O 2.81877 5.63926 28.1765
H 2.05092 5.31954 27.6214
H 2.58518 6.51724 28.5943
O 14.8728 16.0624 22.5781
H 14.5304 15.8092 23.4828
H 15.272 16.9784 22.6172
O 28.5919 8.59513 2.99832
H 29.2025 9.20008 3.50938
H 27.7242 9.06272 2.82926
O 25.5274 16.233 19.9182
H 25.7649 15.3233 20.2589
H 26.3614 16.7202 19.6591
O 23.4576 10.7386 20.3468
H 23.751 10.0208 19.7155
H 23.7289 11.631 19.9863
O 13.6021 15.7878 25.219
H 14.108 15.0569 25.677
H 12.6268 15.6941 25.4191
O 25.7231 5.94044 13.3216
H 25.2114 5.08258 13.3687
H 25.3382 6.51915 12.6027
O 7.1236 22.8891 26.0106
H 6.87328 22.1466 25.3893
H 6.44136 23.6178 25.9511
O 6.11086 14.3317 13.8211
H 6.68321 13.7727 13.2211
H 5.94198 15.218 13.3898
O 16.9203 8.89138 6.64634
H 17.5165 9.64629 6.37306
H 17.2996 8.02897 6.31106
O 3.85315 12.0028 6.78373
H 4.74902 12.1342 6.35927
H 3.15327 12.4569 6.23233
O 9.41099 21.7984 25.0649
H 9.09946 20.9057 25.3904
H 8.6279 22.4147 24.9818
O 7.78359 9.28481 24.1367
H 8.27162 9.85645 23.4771
H 6.87376 9.06928 23.7821
O 19.2838 7.04754 26.6651
H 18.505 6.55314 26.2791
H 18.9549 7.73114 27.3167
O 28.3384 2.46835 5.56298
H 28.004 1.79226 4.9064
H 28.9537 3.1065 5.10019
O 16.8706 3.68049 8.52414
H 17.0753 2.8422 8.0188
H 16.1841 4.21054 8.02637
O 19.27 7.5026 8.08215
H 19.9323 8.21503 8.31399
H 18.9271 7.08039 8.92132
O 25.9154 13.6231 20.8651
H 26.8622 13.3062 20.9208
H 25.5406 13.7171 21.7874
O 8.93836 16.7099 20.0769
H 8.65309 16.1013 19.3365
H 9.50643 17.444 19.7049
O 3.20439 20.4446 27.2846
H 3.49072 21.0605 26.5506
H 3.82409 19.6607 27.3226
O 26.387 8.38453 24.615
H 26.1488 8.72848 25.5233
H 26.7125 7.44197 24.6904
O 6.97153 18.0514 5.40871
H 7.14146 18.0342 6.39402
H 6.17457 17.4854 5.19798
O 9.19533 17.4647 3.70495
H 8.68271 17.6215 4.54912
H 9.67601 18.3026 3.44632
O 7.09992 18.6401 8.53879
H 6.50905 18.3237 9.28093
H 7.17094 19.637 8.57123
O 1.62084 15.4807 26.4306
H 2.38904 15.8659 26.942
H 0.789597 15.9959 26.6394
O 24.401 15.9983 28.9365
H 24.4308 16.4572 28.0486
H 24.6531 16.6463 0.902727
O 14.995 20.6535 6.47489
H 14.2786 19.982 6.28562
H 14.764 21.5207 6.03372
O 20.8645 11.273 25.6763
H 20.2809 10.563 25.2821
H 21.3522 10.9027 26.4669
O 12.5321 23.7796 13.1341
H 11.875 23.5073 12.4312
H 13.2743 23.1105 13.1737
O 4.01249 9.49533 3.119
H 4.43134 9.96387 2.34116
H 4.71257 8.98179 3.61515
O 22.3331 13.7086 13.6581
H 21.6386 13.3344 14.2726
H 23.0565 14.141 14.1964
O 11.6771 20.8428 20.7923
H 11.1941 20.9299 21.6636
H 11.3198 20.055 20.2905
O 3.32976 7.41261 10.1693
H 4.26659 7.7565 10.2332
H 2.85414 7.87787 9.42274
O 21.1373 4.65441 27.2379
H 20.3888 5.28882 27.0449
H 20.9654 3.78518 26.7744
O 22.7864 25.8303 18.4407
H 22.2431 25.5571 19.2346
H 23.607 26.3121 18.7483
O 22.0996 17.9064 22.3529
H 21.9628 17.0628 22.8721
H 22.9971 17.8847 21.9122
O 27.0513 27.779 7.86262
H 26.1162 27.9251 7.5398
H 27.0629 27.7811 8.86255
O 8.42311 8.98792 26.962
H 9.20603 9.59867 27.0805
H 8.04779 9.10176 26.0421
O 28.8788 5.51921 24.1034
H 27.9334 5.48164 23.7796
H 29.0935 6.45042 24.3979
O 20.025 8.3262 19.6917
H 20.247 9.30121 19.7
H 20.2338 7.94452 18.7912
O 13.1334 20.6658 1.86057
H 12.4842 21.0218 1.18841
H 13.035 21.17 2.71855
O 24.964 3.87561 22.6634
H 24.1869 4.11067 22.0797
H 24.7115 3.11843 23.2658
O 26.6177 14.1996 17.5521
H 25.9235 14.2402 18.2708
H 27.2866 13.4903 17.7744
O 18.5661 14.9959 22.7002
H 19.3347 14.6109 23.211
H 18.5832 15.9931 22.7736
O 28.2427 12.351 21.1164
H 27.9433 11.591 21.6933
H 29.0318 12.7982 21.5373
O 6.96824 17.6627 1.61123
H 7.63032 17.4118 2.31744
H 7.13228 18.6052 1.3202
O 0.877892 8.63793 21.6853
H 1.27788 7.72182 21.6577
H 1.60851 9.32072 21.6868
O 16.8607 26.5647 22.5997
H 16.8753 26.3092 23.5664
H 17.7169 27.0242 22.3634
O 29.0872 18.6339 6.10973
H 29.232 19.2568 6.87852
H 29.0004 17.6979 6.4509
O 3.99482 22.453 25.1386
H 4.81828 21.9827 24.8212
H 4.21874 23.4009 25.3651
O 1.90399 13.4225 21.6372
H 1.97115 13.7827 20.7068
H 2.13759 14.1423 22.2909
O 11.5331 1.30786 8.1568
H 11.7536 2.11245 8.70817
H 10.7433 1.50744 7.57692
O 12.099 23.0069 25.6523
H 12.0341 23.9148 25.2381
H 11.2668 22.4895 25.4532
O 16.0096 17.8654 7.92291
H 16.213 17.307 8.72714
H 16.2602 18.8162 8.10529
O 4.58026 18.0139 27.9844
H 4.68684 17.0199 28.0082
H 4.40099 18.3521 28.9082
O 23.8252 27.4659 9.44347
H 24.7856 27.2775 9.64883
H 23.7236 27.6518 8.46616
O 23.6786 14.8928 8.43849
H 23.5126 15.8319 8.73937
H 24.5073 14.5441 8.87634
O 16.5553 24.0472 27.5599
H 16.7171 23.718 28.4902
H 16.1964 23.3005 26.9998
O 1.37146 20.3705 4.04579
H 1.05804 19.7445 4.75987
H 0.67994 20.4277 3.3257
O 4.82201 2.15208 15.2073
H 4.93372 2.69453 14.3747
H 4.10105 2.55333 15.7723
O 1.91483 7.50261 1.7856
H 2.69945 8.03713 2.0997
H 1.07125 7.91562 2.12882
O 2.3245 6.59498 15.5445
H 1.85487 5.77809 15.2096
H 2.31081 7.3011 14.8366
O 15.9379 7.14207 2.71576
H 15.0239 7.3401 3.06982
H 16.3756 6.4508 3.29075
O 14.738 11.0217 6.54042
H 14.1474 10.733 5.78693
H 15.5725 10.4707 6.53981
O 23.084 4.4404 20.7488
H 22.5796 5.26619 21.001
H 22.9934 4.2817 19.7656
O 24.492 13.8966 15.3427
H 25.167 14.2033 16.0137
H 23.9882 13.1148 15.7101
O 15.9614 21.8414 15.8421
H 16.8323 21.7273 15.3641
H 15.9535 22.7228 16.3144
O 2.01863 12.928 4.49913
H 2.67774 13.4338 3.9426
H 1.1277 12.9303 4.04499
O 16.9578 2.94989 23.2158
H 15.9777 3.11371 23.3278
H 17.313 3.53784 22.489
O 14.7743 22.3048 26.4506
H 13.8896 22.6296 26.1162
H 15.3683 22.0965 25.6736
O 6.82335 25.703 11.7588
H 6.31982 25.0827 12.3602
H 7.0163 25.2433 10.892
O 0.642205 21.9665 16.771
H 0.762007 22.1558 15.7964
H 28.4298 22.0667 17.0138
O 2.03967 11.237 23.1046
H 2.00823 12.0669 22.5476
H 1.48299 11.3652 23.9254
O 6.16475 7.38944 4.47251
H 5.92534 6.42972 4.32546
H 6.9638 7.62234 3.91819
O 12.3818 12.2081 25.6304
H 11.9204 13.0781 25.8041
H 13.3455 12.2852 25.8859
O 24.001 5.06439 10.6282
H 24.0502 6.05947 10.7142
H 23.6921 4.8242 9.70795
O 19.579 13.3429 27.8211
H 20.4529 12.9921 27.4846
H 19.4318 14.2663 27.4668
O 9.09458 4.06562 26.9666
H 8.49338 3.7505 27.7009
H 8.8511 3.60225 26.1145
O 10.5344 27.5568 9.67377
H 9.72713 28.0373 10.0164
H 11.1556 28.2126 9.24486
O 3.07194 9.4753 8.04184
H 3.41049 10.3063 7.60043
H 2.19937 9.21135 7.63081
O 12.6894 27.9218 13.5538
H 12.6211 27.4337 12.6837
H 13.5369 28.4525 13.5726
O 21.2912 20.0714 20.8416
H 21.467 19.1491 21.1858
H 21.5908 20.1345 19.8896
O 8.52433 18.0553 16.9262
H 7.55093 18.1767 17.1205
H 8.81297 17.1456 17.2247
O 20.7254 24.9009 20.1779
H 19.8173 25.0212 19.7768
H 20.7423 24.0597 20.7184
O 8.48814 16.7038 11.938
H 8.24644 17.0821 12.8315
H 8.39863 15.7081 11.9624
O 10.5993 19.729 3.04621
H 11.3602 20.2543 3.42718
H 10.494 19.9502 2.07668
O 7.32287 14.0551 3.3248
H 7.10391 13.1324 3.00749
H 8.16994 14.364 2.89233
O 6.87594 21.4942 8.70971
H 5.96474 21.1278 8.52137
H 7.33889 21.6962 7.84666
O 11.4262 27.8824 15.8802
H 10.4702 27.8596 15.5876
H 12.0185 27.6827 15.0996
O 22.2239 27.4356 27.0699
H 21.5866 28.1258 27.4127
H 21.9541 27.1623 26.1466
O 24.5419 16.3883 24.2653
H 24.433 16.9808 25.0635
H 24.3901 16.9201 23.4322
O 24.529 1.6485 24.6959
H 24.7257 0.954426 24.0034
H 24.5625 1.23183 25.6044
O 5.10998 4.91981 7.89345
H 4.32739 4.90185 8.51572
H 5.24406 5.85057 7.55329
O 28.1736 13.6748 3.82793
H 28.0938 14.5987 4.20215
H 27.2703 13.2467 3.80134
O 3.52538 24.8243 15.2377
H 3.06562 24.3322 15.9769
H 2.86127 25.393 14.7524
O 22.8342 25.3303 11.0661
H 22.9431 26.1892 10.5656
H 21.9284 25.3034 11.4888
O 14.7887 7.01033 20.8926
H 15.6105 7.57871 20.9322
H 14.121 7.34286 21.5586
O 27.6559 17.742 3.36959
H 27.3103 17.0191 3.96787
H 28.311 18.3059 3.87237
O 5.0956 9.96815 29.2717
H 5.33296 9.00453 29.1489
H 4.56495 10.2836 28.485
O 25.4067 19.8361 25.3453
H 25.6372 20.405 26.1348
H 25.1933 20.4217 24.5634
O 23.6619 9.05877 18.0671
H 24.3302 8.48716 18.5432
H 23.0337 8.47706 17.5504
O 17.0595 11.9098 9.87003
H 16.1796 12.3192 9.62861
H 16.9146 10.9745 10.1928
O 9.51749 15.644 17.4891
H 9.14603 14.8777 16.9649
H 10.5147 15.647 17.4139
O 2.32213 4.99354 8.99926
H 1.49493 5.21413 8.48248
H 2.62718 5.80276 9.50137
O 11.6335 28.2805 6.15089
H 10.7241 28.4992 5.79699
H 11.8819 28.9389 6.8614
O 15.2522 27.4447 4.35642
H 14.9903 27.7738 3.44918
H 16.2488 27.4522 4.43886
O 14.8791 26.7445 7.22
H 14.7211 27.1579 6.32327
H 14.3244 25.9172 7.30809
O 24.0683 13.333 18.9833
H 23.6115 14.2165 18.8788
H 24.6319 13.3449 19.8092
O 25.2459 17.909 2.11619
H 24.6521 17.875 2.92005
H 26.1925 17.7451 2.39388
O 12.613 26.2994 4.57302
H 12.1088 27.0776 4.9473
H 13.5351 26.5909 4.31855
O 23.6897 3.8956 13.1273
H 23.6958 4.11364 12.1514
H 23.7607 2.90546 13.2481
O 11.9625 10.8552 7.41129
H 11.4001 10.8112 6.58558
H 12.926 10.9313 7.15469
O 23.2239 2.46137 28.4152
H 23.2434 3.44693 28.5834
H 22.6447 2.01797 29.0992
O 17.7857 15.3029 16.1617
H 16.8119 15.3601 15.9415
H 18.1991 16.2101 16.0827
O 6.13585 21.0207 23.9945
H 6.5716 20.7418 23.1387
H 5.91164 20.2092 24.5342
O 13.655 7.41883 4.1189
H 14.2367 7.11467 4.87332
H 12.7088 7.14923 4.29791
O 11.1688 22.6181 8.07286
H 10.5347 23.2135 7.57942
H 10.9964 21.6659 7.82098
O 19.0035 10.5587 6.35381
H 19.4443 10.1191 7.13644
H 19.3625 11.4858 6.24639
O 29.4022 4.63401 15.2743
H 28.6595 5.29435 15.1632
H 29.1513 3.77274 14.8324
O 9.94191 20.5609 22.8747
H 10.358 19.7268 23.2369
H 9.90947 21.2562 23.5926
O 5.95724 18.6035 25.7388
H 5.27855 18.3791 26.4381
H 6.35456 17.7602 25.3771
O 7.95143 13.6371 11.9017
H 7.64628 13.2047 11.0533
H 8.76033 13.1608 12.2464
O 16.984 9.09138 20.4295
H 17.8645 8.74961 20.1011
H 16.7382 9.9187 19.9244
O 21.8286 27.7903 13.5661
H 20.8923 28.0072 13.2899
H 21.8166 27.0324 14.2184
O 24.182 3.99841 15.9399
H 24.1212 3.87889 14.9489
H 24.8694 3.3732 16.3094
O 4.46564 12.0554 14.2165
H 3.54774 12.4519 14.2316
H 5.14455 12.7825 14.3182
O 16.39 24.4441 16.7235
H 15.5529 24.82 16.3262
H 16.82 25.1324 17.3078
O 19.95 25.7868 16.9191
H 20.4764 26.5073 16.4677
H 20.5722 25.078 17.2517
O 7.88952 2.11531 11.0488
H 8.17443 1.19105 11.3029
H 8.09593 2.74538 11.7974
O 1.559 12.5886 26.7633
H 1.87538 13.5207 26.9398
H 1.04846 12.5671 25.9037
O 14.1602 24.3794 21.7292
H 14.4215 23.415 21.7684
H 14.7768 24.8669 21.1108
O 14.6056 3.27644 19.28
H 15.508 3.70726 19.2735
H 13.9054 3.97176 19.4423
O 9.51482 25.9502 1.43447
H 9.64779 26.1205 29.2106
H 8.8836 26.6297 1.80839
O 2.05762 13.5591 13.949
H 1.25119 12.9926 13.7798
H 2.37 13.9601 13.0878
O 4.76419 15.7919 15.7912
H 5.31401 15.4567 15.0261
H 4.04368 15.1303 15.9989
O 8.59465 28.1889 16.0572
H 7.75143 28.3275 15.5378
H 8.41492 28.3356 17.0299
O 0.847365 24.7256 4.74678
H 28.9263 24.4106 4.07808
H 29.128 25.0691 5.55873
O 23.6062 1.37013 10.3108
H 23.1618 1.93388 9.61458
H 23.8219 29.2255 9.92537
O 27.8181 21.308 9.81583
H 27.5408 21.5108 8.87669
H 27.0432 21.4537 10.431
O 21.9172 1.21633 1.84221
H 22.2655 29.032 1.81167
H 21.6963 1.4592 2.78679
O 24.3392 13.7559 23.1721
H 23.9743 13.0224 23.7456
H 24.5765 14.5403 23.745
O 7.28946 16.4669 24.8377
H 7.78589 15.6807 25.2056
H 7.24457 16.3962 23.8412
O 26.3804 21.5139 27.1554
H 26.4863 21.005 28.0097
H 26.0741 22.4442 27.3575
O 25.9098 20.4755 1.00362
H 25.4617 19.5816 1.01756
H 26.7314 20.4455 1.57292
O 23.4502 16.1825 18.4191
H 24.2488 16.2033 19.0206
H 23.5404 16.8923 17.7205
O 11.4949 24.6523 21.92
H 10.8196 24.3487 21.2478
H 12.3996 24.3154 21.6592
O 13.9641 19.6732 16.0632
H 13.8336 19.6335 15.0725
H 14.7068 20.3079 16.2764
O 5.89882 24.4157 14.0177
H 6.59301 24.7208 14.6697
H 4.98885 24.5816 14.3978
O 23.4222 11.8382 16.6512
H 23.501 12.3848 17.4848
H 23.4408 10.8665 16.8868
O 12.8182 25.1338 7.31018
H 12.4401 25.6377 6.53362
H 12.1098 24.5484 7.70445
O 28.9544 19.8214 21.2147
H 0.66585 19.9744 20.3422
H 0.749062 19.2034 21.7792
O 16.6106 24.9416 20.6944
H 16.6519 25.6178 21.4299
H 17.0455 25.3139 19.8745
O 16.7422 14.4211 29.371
H 17.5005 13.8658 29.0294
H 16.4889 14.1116 1.53506
O 12.3245 22.037 4.00051
H 12.8573 22.3562 4.78421
H 11.661 22.7386 3.74058
O 10.747 24.502 3.53512
H 10.2425 24.9689 2.80883
H 11.5236 25.0655 3.81692
O 25.358 5.59803 6.70024
H 25.5458 5.6725 5.72087
H 26.1817 5.28782 7.17493
O 9.96152 7.60256 23.6189
H 9.96603 6.62742 23.8405
H 9.14006 8.02708 23.9997
O 4.12153 2.67485 22.6592
H 4.95547 2.34157 22.2193
H 3.54581 1.89795 22.9141
O 14.6401 22.1668 13.5027
H 14.4307 21.2618 13.1326
H 14.9499 22.0764 14.4492
O 16.3474 22.3921 21.246
H 16.4801 23.3593 21.0295
H 15.5457 22.0481 20.7572
O 14.8621 12.874 15.4205
H 14.7959 13.8655 15.5326
H 14.5057 12.6155 14.5226
O 16.1754 16.6983 3.44366
H 15.9519 17.4888 2.87341
H 16.9908 16.899 3.98673
O 29.2507 20.3912 28.4178
H 1.23866 20.8504 27.9271
H 29.2031 19.4347 28.1303
O 29.3141 28.3671 16.2373
H 29.4708 28.3292 17.2242
H 0.449533 29.3195 15.9539
O 15.3507 0.8308 13.2783
H 15.7069 1.48606 13.9444
H 14.8961 1.32356 12.5363
O 22.0803 20.2396 18.2539
H 22.8496 19.757 17.8353
H 21.6986 20.8907 17.5979
O 15.018 22.0979 29.3755
H 14.9872 22.1177 28.3762
H 14.2997 21.4931 0.966719
O 9.52103 2.33897 6.67611
H 8.68554 2.83601 6.91043
H 9.29129 1.55234 6.10304
O 26.8753 16.0028 5.29647
H 27.1155 16.4113 6.17701
H 25.9716 15.5794 5.36094
O 20.8179 22.5677 21.9382
H 21.371 22.5647 22.7713
H 20.8511 21.6633 21.5129
O 15.1019 13.5451 25.9398
H 15.3523 13.3674 24.9881
H 15.7159 13.0396 26.546
O 2.20023 1.76809 12.7993
H 2.05407 1.99301 11.8359
H 2.89768 2.37457 13.1811
O 17.4694 11.8794 14.9932
H 16.601 12.3017 15.253
H 18.2204 12.5056 15.2027
O 13.2865 27.0165 20.3006
H 13.7567 27.8897 20.1725
H 13.2406 26.8026 21.2763
O 24.4939 29.1118 27.0727
H 24.1239 1.17401 27.5192
H 23.7792 28.4157 27.0042
O 10.0706 24.3559 6.18128
H 10.2682 24.1986 5.2137
H 9.52656 25.1892 6.27924
O 19.0673 17.664 22.6312
H 18.7918 18.4451 22.0709
H 20.065 17.6311 22.6898
O 5.41744 15.5027 1.6713
H 6.07806 14.9954 2.22468
H 5.80688 16.3874 1.4151
O 24.39 14.9684 5.67712
H 24.7008 14.0328 5.51006
H 24.04 15.0416 6.61101
O 20.0209 13.8273 24.871
H 19.336 14.0927 25.5496
H 20.3116 12.8858 25.0416
O 23.3543 18.282 16.6231
H 23.9457 17.9628 15.8826
H 22.743 18.9942 16.278
O 1.92627 26.6479 14.1768
H 2.3971 27.0884 13.4124
H 1.48866 27.3449 14.745
O 2.68018 13.9908 16.511
H 2.519 13.1043 16.9447
H 2.55792 13.9053 15.5222
O 27.6827 16.5315 7.69991
H 28.1257 15.639 7.78534
H 27.6452 16.9722 8.59677
O 2.67969 3.13795 16.4403
H 1.91455 3.73925 16.2101
H 2.42903 2.56275 17.219
O 17.2401 20.3226 8.42076
H 16.6147 20.6218 9.14139
H 16.8932 20.6233 7.53235
O 28.6922 2.07901 14.6253
H 27.999 1.71414 14.0037
H 0.850292 1.86851 14.2696
O 13.6802 28.0162 9.4667
H 13.3966 27.3226 10.129
H 14.0159 27.5683 8.63805
O 23.7104 25.0074 2.16563
H 24.0719 24.1169 1.88916
H 22.7802 25.1132 1.81407
O 5.34406 3.28903 10.3764
H 5.39097 3.66827 9.45232
H 6.25214 2.97614 10.6548
O 12.1125 26.0686 18.0864
H 12.7738 26.435 18.7409
H 11.6302 26.8235 17.6418
O 22.6606 13.0692 1.43469
H 22.9534 13.9528 1.80018
H 22.2462 13.2017 29.2868
O 17.3044 27.4039 8.32023
H 17.4136 27.1499 9.28126
H 16.3888 27.1481 8.00987
O 21.8579 15.5131 23.3566
H 22.6065 14.9038 23.0952
H 21.269 15.052 24.0203
O 22.4526 21.419 24.093
H 23.4034 21.6952 23.953
H 22.1502 20.8614 23.3199
O 29.4031 28.3408 6.45292
H 29.0206 29.2307 6.70158
H 29.1773 27.6715 7.16071
O 13.6874 24.9128 15.7331
H 13.1217 24.5691 14.9834
H 13.1193 25.4409 16.3642
O 26.0388 16.6886 11.2236
H 26.5887 17.5234 11.1977
H 26.0568 16.306 12.1473
O 17.8506 16.9754 5.81345
H 18.0209 15.9958 5.92056
H 17.1777 17.2728 6.49077
O 16.8988 5.0833 4.08604
H 17.729 5.41844 4.53158
H 16.3764 4.52546 4.73094
O 14.1164 1.93498 11.0726
H 13.4419 2.64804 10.8811
H 14.1704 1.30957 10.2941
C 24.5236 18.5429 8.62584
O 24.2261 17.2625 9.18891
H 24.868 17.1777 9.87723
C 10.3257 19.1661 7.43289
O 11.5869 19.7796 7.15406
H 12.2363 19.0946 7.10758
C 6.01568 25.8468 25.609
O 5.26633 24.8344 26.286
H 4.89688 25.2092 27.0709
C 9.68593 8.01581 2.6904
O 8.26398 7.98713 2.83916
H 7.92174 8.1558 1.97461
C 3.48959 24.1323 18.1732
O 4.43782 23.1403 18.5754
H 4.79785 23.5465 19.3489
C 19.5813 26.424 10.3738
O 20.2825 25.9207 11.5139
H 19.8169 26.2571 12.2643
C 25.4697 22.9987 24.3358
O 25.0888 21.8827 23.5269
H 25.4733 22.0389 22.678
C 24.2198 0.830335 18.0091
O 24.6714 29.0639 19.2627
H 24.9045 28.1625 19.1006
C 16.0984 1.6613 2.34693
O 15.5391 29.1097 2.17002
H 15.7708 28.8962 1.27907
C 14.1074 2.54203 5.37621
O 15.3933 3.12098 5.61328
H 15.8307 2.56053 6.2359
C 25.9388 19.5134 14.1846
O 25.3134 18.4307 14.8784
H 25.1906 17.7237 14.2634
C 28.6441 23.0878 13.5844
O 0.884875 22.2942 14.239
H 1.57309 21.9801 13.6726
C 18.295 19.3362 16.6807
O 18.7697 17.9883 16.7321
H 19.5076 17.9128 17.3177
C 4.01581 18.5673 14.2347
O 5.18611 18.9275 13.4962
H 5.10159 19.86 13.368
C 20.5209 2.68167 22.1074
O 19.5001 1.83727 22.6458
H 18.6956 2.32067 22.756
C 24.9637 22.9222 11.998
O 25.4309 21.9102 11.1023
H 24.774 21.7617 10.4393
C 1.83674 27.6632 1.49551
O 0.934614 27.3709 2.56586
H 1.38926 27.1256 3.35715
C 25.5388 3.5563 4.03965
O 25.394 4.93596 3.69254
H 25.0417 5.05403 2.82367
C 26.213 26.2084 4.24752
O 25.5803 24.9265 4.2126
H 24.7626 25.0029 3.74502
C 18.234 2.01565 18.3991
O 18.235 2.98642 17.3491
H 18.8548 2.70303 16.6945
C 4.17917 5.02296 12.9589
O 4.18677 3.59356 12.9182
H 4.39386 3.33015 12.0346
C 23.6166 12.4872 10.6246
O 22.8461 11.9225 11.6887
H 22.7194 12.6099 12.3248
C 28.1436 28.2472 11.0686
O 26.9182 27.7061 10.5679
H 26.355 27.7071 11.3267
C 27.632 5.30654 10.5791
O 28.2809 5.49352 9.31861
H 27.8712 4.91507 8.69363
C 0.961929 2.9283 1.57987
O 29.1429 2.93024 2.89069
H 0.956581 3.43068 3.45816
C 22.8656 21.8991 2.56283
O 23.9745 22.4552 1.85137
H 24.4626 21.7114 1.53278
C 11.2798 0.750089 27.2783
O 10.727 28.7708 28.3755
H 11.2887 28.9397 29.1164
C 20.2428 12.0299 21.1031
O 20.7634 11.0621 20.1881
H 21.6959 10.9983 20.3274
C 16.5724 8.37222 10.1932
O 16.8196 9.54561 10.9723
H 16.9078 9.34781 11.8921
C 2.97806 5.42426 21.459
O 1.79569 6.06071 21.9508
H 1.34283 5.48521 22.548
C 7.28741 28.5292 1.71575
O 7.5817 27.576 2.74024
H 6.73141 27.4295 3.1257
C 19.5551 18.1641 2.78726
O 19.6447 18.3776 4.19838
H 18.9183 17.9096 4.58093
C 15.2184 27.9589 16.7927
O 16.088 28.0721 17.9222
H 15.7027 28.6637 18.5503
C 7.83373 8.8135 16.3446
O 6.40577 8.74464 16.3117
H 6.12732 7.91484 16.668
C 8.26087 11.5003 1.44582
O 6.89067 11.5364 1.85341
H 6.34132 11.1644 1.18044
C 7.98607 3.29263 16.4033
O 8.27621 2.44127 15.2916
H 8.48687 1.55406 15.5396
C 6.49575 11.2543 8.81946
O 7.18195 11.8308 9.93373
H 7.19801 11.3366 10.739
C 20.4439 13.5994 16.6982
O 19.5211 13.4882 15.6115
H 18.8468 14.0946 15.8776
C 3.89033 2.17371 28.033
O 4.65768 3.38036 28.0409
H 4.19087 4.18484 27.8739
C 25.6359 5.3148 25.7491
O 25.9876 5.64824 24.4037
H 25.4925 5.16102 23.763
C 23.3417 9.12542 13.8042
O 23.5086 9.21175 12.3866
H 23.2288 10.0796 12.1384
C 6.42262 21.2004 17.0591
O 5.25549 21.719 16.4158
H 4.84349 22.3373 16.9997
C 16.9612 12.026 22.9712
O 16.5567 13.2299 23.6285
H 17.0556 13.9284 23.2331
C 15.3156 9.39883 14.2698
O 16.6423 9.51965 13.75
H 16.9944 10.3007 14.1487
C 3.62153 10.02 19.9984
O 3.72344 9.77601 21.4037
H 3.20339 10.4071 21.8774
C 23.2971 18.5452 4.91632
O 23.9225 17.4123 4.30776
H 24.1659 16.7465 4.93263
C 11.2399 14.6385 3.72756
O 9.93828 14.8657 3.18069
H 9.732 15.7604 3.40426
C 28.9602 3.12705 26.7652
O 0.6795 4.46499 26.5857
H 29.346 4.71726 25.6791
C 23.2318 14.0809 26.4168
O 22.68 14.1293 27.7351
H 23.234 14.7289 28.2111
C 13.385 11.506 22.3652
O 12.0867 11.2614 22.9125
H 11.9931 11.8487 23.6469
C 20.1913 2.92038 13.9878
O 19.3427 3.17861 15.1094
H 18.5763 3.60078 14.7526
C 11.7986 2.76536 13.6616
O 11.2063 3.26115 12.4582
H 10.3658 3.58251 12.7467
C 14.223 18.6568 27.0032
O 15.0165 17.9166 26.0718
H 14.4613 17.1854 25.8481
C 21.0349 10.4593 9.48768
O 21.1834 9.60618 8.34969
H 22.1114 9.43255 8.30889
C 4.11053 10.8895 25.9034
O 3.73265 11.2964 27.2212
H 2.95214 11.8246 27.1518
C 3.78459 1.58841 4.61359
O 5.03438 1.14293 4.08021
H 5.18149 29.0866 4.54629
C 24.203 9.02565 6.94976
O 23.8818 9.45989 8.27383
H 24.6558 9.60659 8.79572
C 22.2162 5.6161 7.47973
O 23.2093 4.65746 7.85335
H 24.0573 4.94169 7.54812
C 16.6278 6.09467 18.0849
O 16.8987 4.87314 18.7773
H 17.3711 4.29348 18.1995
C 25.8151 21.6115 18.2981
O 27.1895 21.9083 18.5582
H 27.2553 22.0006 19.4964
C 20.7076 21.8888 10.1863
O 21.6125 20.8312 9.85816
H 21.097 20.0414 9.80015
C 25.077 25.2368 27.5517
O 25.3225 23.8776 27.1812
H 24.6051 23.6807 26.5985
C 7.34164 2.02437 25.1297
O 7.57338 3.38108 24.7417
H 6.77047 3.77552 24.4371
C 27.5418 13.2234 24.8793
O 28.5853 12.267 24.676
H 28.2698 11.6487 24.0348
C 19.8754 16.2951 19.4003
O 20.9233 17.1747 18.984
H 21.6854 16.6396 18.823
C 27.2915 28.8952 28.882
O 27.1371 28.2969 27.5925
H 26.2164 28.4653 27.4619
C 15.4802 28.8614 26.9817
O 15.3602 28.4529 28.3468
H 15.2666 27.5195 28.4615
C 13.3519 16.8889 10.3741
O 14.3937 17.4717 11.1613
H 15.2344 17.2377 10.7987
C 15.0275 19.3555 22.9745
O 15.9507 18.4084 22.4308
H 16.7465 18.7865 22.0891
C 7.46259 2.69071 21.5449
O 6.54894 1.59071 21.5325
H 7.02919 0.824803 21.2573
C 11.5153 2.53766 16.9984
O 10.9408 1.33993 17.5279
H 11.2791 29.4113 16.9669
C 27.9961 25.1835 17.4201
O 27.2978 26.4129 17.2062
H 27.8589 27.0406 16.7771
C 12.7474 8.48712 29.1083
O 12.2891 8.03198 27.8325
H 12.0644 7.11414 27.8218
C 13.7423 4.01016 25.5131
O 14.0969 5.18541 24.7797
H 13.3995 5.80789 24.6414
C 15.4596 17.6929 18.433
O 14.8994 17.534 17.1269
H 14.5531 18.3719 16.8604
C 9.81706 23.4481 11.059
O 11.1765 23.0251 10.9248
H 11.2779 22.8894 9.99514
C 10.3075 22.3114 28.8763
O 11.5343 21.6455 28.5656
H 11.7629 21.9261 27.6927
C 24.9476 19.487 21.2721
O 24.9478 18.1681 21.8248
H 25.2891 17.6286 21.128
C 3.2226 28.5642 24.9009
O 2.89528 29.1788 23.6519
H 1.96976 0.280419 23.5288
C 18.2364 26.9318 25.8976
O 17.4022 25.9012 25.362
H 17.1188 25.377 26.0954
C 16.8789 12.7811 18.3283
O 16.4646 12.4564 19.6579
H 16.3969 13.2707 20.1325
C 5.74834 14.1331 22.9295
O 5.1005 15.4077 22.9021
H 5.53368 16.0752 22.3924
C 3.70754 19.619 6.67307
O 4.36767 20.8332 7.0404
H 3.70955 21.4667 6.79833
C 19.3812 27.787 20.976
O 19.331 27.9464 22.3962
H 19.4216 28.8754 22.5436
C 8.28223 12.6613 25.6537
O 8.58353 13.9823 25.1964
H 8.83027 13.6834 24.3346
C 27.1397 10.0144 10.4226
O 26.7792 9.32336 9.22371
H 27.5726 9.34242 8.71061
C 11.4498 15.5425 13.9685
O 11.6214 14.6217 12.8879
H 11.0191 13.9009 12.9919
C 3.71865 12.7681 10.5791
O 3.27191 13.8379 11.4163
H 3.58468 14.6424 11.0317
C 3.29511 15.6791 5.7724
O 4.64536 16.1235 5.61667
H 5.14025 15.3214 5.54761
C 26.2417 7.10857 16.2611
O 27.2251 6.39422 15.5078
H 26.8922 6.30478 14.6279
C 10.3077 13.94 21.7547
O 9.27125 13.4877 22.63
H 8.60818 13.0318 22.1345
C 0.984569 25.3468 27.2195
O 1.622 24.3968 26.3616
H 1.05727 23.6592 26.1886
C 6.35085 29.2823 8.62463
O 7.30222 28.4134 9.24499
H 7.42096 28.7857 10.1054
C 11.0112 16.5195 29.349
O 11.7831 16.2233 28.1822
H 12.5506 15.7146 28.3945
C 26.9045 11.0402 18.36
O 27.8629 12.0984 18.4405
H 28.1054 12.0948 19.3538
C 10.5233 13.4621 9.26654
O 10.4422 13.2522 7.85434
H 11.178 12.6759 7.71481
C 13.6193 22.794 18.8252
O 13.937 21.9228 19.9138
H 13.144 21.5274 20.2422
C 17.6093 20.0408 12.0232
O 18.3263 18.9391 11.4601
H 18.7233 19.1619 10.632
C 17.1246 6.16697 13.8873
O 17.4792 4.86026 13.4273
H 17.3229 4.7437 12.5026
C 3.86239 27.3531 11.0808
O 3.1514 27.9399 12.174
H 3.16838 28.8562 11.9436
C 18.5584 28.0422 14.5878
O 19.0051 27.5399 13.3257
H 18.6255 28.0951 12.6617
C 10.3319 12.2258 14.4932
O 10.1359 12.4488 13.0943
H 10.2571 11.6115 12.6734
C 6.88061 24.1606 21.9973
O 5.62561 24.2802 21.3223
H 5.07065 23.7945 21.9132
C 29.3842 7.60414 18.4891
O 1.48253 8.42387 17.6835
H 1.72521 7.90962 16.9287
C 9.87004 18.4997 26.137
O 8.88055 19.4112 25.6522
H 8.03974 19.0515 25.8902
C 5.81113 17.0203 18.692
O 5.88721 17.6238 17.3978
H 5.56885 16.9886 16.7748
C 27.1683 12.8118 13.2216
O 28.5292 12.376 13.1693
H 28.492 11.4332 13.2225
C 27.3547 24.0106 1.27865
O 27.7551 23.7278 2.622
H 27.0007 23.7737 3.18927
C 1.36232 1.83642 8.73692
O 1.96383 2.32143 9.94019
H 2.10983 3.22264 9.69621
C 26.2401 4.57708 29.2092
O 25.2104 5.27997 1.15714
H 24.5159 5.6374 29.3777
C 13.1198 14.661 18.5417
O 12.6322 15.6735 17.6573
H 13.1463 16.4621 17.7404
C 9.6123 5.74484 20.1641
O 10.3007 5.37684 18.966
H 11.23 5.46184 19.1147
C 27.217 3.37991 17.5025
O 26.4162 2.6318 16.5838
H 26.8831 2.65259 15.7625
C 3.02014 19.8266 18.5272
O 1.66642 20.2589 18.6868
H 1.49584 20.6616 17.8491
C 10.5818 5.27286 5.24096
O 11.3597 6.4728 5.24255
H 11.0007 7.1459 5.80027
C 8.67884 2.65573 3.03659
O 7.2541 2.77428 3.00548
H 6.85127 1.92165 3.06692
C 12.9837 8.3038 24.8064
O 12.9804 7.45891 23.6527
H 12.1282 7.52186 23.2491
C 8.25336 5.11093 12.9557
O 8.66093 3.74181 13.0213
H 8.52367 3.31975 13.8556
C 18.7247 14.4273 11.8689
O 17.6797 14.4786 10.8941
H 17.5296 13.5816 10.6373
C 4.48267 4.82159 2.68143
O 5.56559 4.86217 3.61445
H 6.1478 4.14078 3.43099
C 24.7916 29.04 5.65797
O 24.3743 28.1405 6.68835
H 23.582 27.7922 6.30896
C 19.5937 6.7987 4.64003
O 18.7612 6.30229 5.69143
H 19.0798 6.54275 6.548
C 1.75443 15.951 19.4374
O 1.99832 14.5676 19.1696
H 2.30702 14.5093 18.2784
C 26.5264 8.46561 28.4321
O 26.9307 9.23119 27.2939
H 27.5481 9.83424 27.6787
C 11.5639 19.2299 18.1537
O 10.3592 18.8915 18.8459
H 9.66044 18.8212 18.2135
C 25.9582 7.69876 20.9636
O 24.8981 7.68634 20.0039
H 24.2466 7.05733 20.2739
C 13.5835 17.9404 5.20997
O 13.6744 18.1362 6.62359
H 14.5279 17.8412 6.90189
C 28.2513 13.7198 9.25395
O 28.5437 14.0166 7.886
H 0.544593 13.5477 7.56111
C 14.9784 0.800288 21.2311
O 14.5106 0.754458 19.8806
H 14.4577 1.66107 19.6193
C 2.93179 18.6332 22.7787
O 1.63328 18.0355 22.7396
H 1.79518 17.1103 22.8434
C 5.85543 26.0604 5.09828
O 5.29304 27.3149 4.7047
H 4.35208 27.2275 4.70366
C 20.0362 24.6378 1.07214
O 21.2602 25.3663 1.199
H 21.1668 26.2827 0.988333
C 10.5533 3.78608 23.2928
O 9.5783 4.77349 23.6383
H 8.79252 4.44224 24.0455
C 22.7667 18.1022 27.2927
O 23.8826 17.6287 26.5342
H 24.1827 18.487 26.2765
C 6.41123 7.85232 21.4681
O 5.90364 8.75633 22.453
H 5.03537 9.02021 22.1893
C 21.8062 21.4293 14.5932
O 22.1991 20.1459 15.0866
H 22.3763 19.6533 14.2999
C 4.61957 5.57794 24.7454
O 5.36152 4.631 23.9723
H 4.7763 3.97709 23.6217
C 8.68941 7.64843 6.73456
O 9.90087 8.38857 6.56301
H 9.69542 9.29412 6.38749
C 28.3392 9.19178 14.373
O 29.0704 9.72834 13.2674
H 1.14086 9.26594 13.3109
C 9.46087 24.5532 15.4282
O 8.13129 25.0271 15.6575
H 8.28905 25.8964 15.9929
C 10.0421 27.4988 21.4229
O 9.57434 28.5795 20.6116
H 10.3269 29.0926 20.36
C 18.3848 10.3428 1.7153
O 19.3888 9.50875 1.13109
H 19.0845 8.64832 1.37619
C 20.5286 27.7631 6.63082
O 21.8347 27.5461 6.09047
H 21.7668 26.7036 5.66781
C 12.291 6.37202 15.7886
O 13.1951 7.03054 16.6796
H 12.9911 7.95319 16.6674
C 9.38182 28.2083 12.8278
O 8.33658 27.99 11.8767
H 7.96731 27.1398 12.0605
C 16.4693 20.2307 2.88215
O 15.5298 19.292 2.35199
H 14.7671 19.7989 2.11881
C 2.60223 22.2995 0.968354
O 3.21058 23.3705 28.9944
H 3.32613 23.0862 28.1006
C 5.5612 13.4392 19.1766
O 6.5156 12.4668 18.7425
H 6.01688 11.9177 18.1571
C 29.2493 16.2657 15.1871
O 27.999 15.6019 15.3892
H 28.1302 15.0064 16.1112
C 1.22188 10.7745 29.3255
O 29.0619 10.7628 28.2246
H 29.5031 11.3051 27.5888
C 17.7248 1.06308 10.6579
O 17.1372 28.8279 11.5088
H 16.5095 29.2006 12.1089
C 5.33974 24.2207 8.71708
O 6.32335 23.8913 9.70141
H 6.59328 23.0196 9.45603
C 7.01474 26.5354 18.9942
O 7.5892 27.8225 18.7533
H 8.05729 28.1567 19.5031
C 5.13316 5.09912 17.7424
O 5.06159 6.38891 17.129
H 4.2005 6.52166 16.7631
C 25.7827 25.8705 20.1708
O 25.3732 26.5105 18.9593
H 26.1059 26.5362 18.3631
C 15.1348 16.4492 14.3419
O 15.1911 15.6103 15.4986
H 15.0333 16.1831 16.2334
C 19.9173 9.03408 13.0531
O 19.3011 8.63898 11.8246
H 18.7949 9.33015 11.4258
C 21.4786 7.04038 15.889
O 21.809 7.07309 17.2799
H 22.0283 6.18472 17.516
C 26.3474 21.0998 5.9309
O 26.3895 21.2025 7.35659
H 25.5389 21.4519 7.6841
C 27.6789 18.0827 18.124
O 27.7685 17.7471 19.5112
H 28.1385 18.4902 19.9628
C 20.4478 17.826 8.85855
O 19.7283 18.9844 9.28896
H 19.0121 19.1282 8.68945
C 18.0408 1.53776 6.04651
O 17.1984 1.33171 7.18358
H 17.4181 29.2746 7.61874
C 18.0054 24.4764 6.88886
O 18.0169 25.7469 6.2327
H 17.7547 26.4165 6.84587
C 13.4863 25.6815 28.3317
O 14.8815 25.9805 28.2369
H 15.4786 25.2679 28.0675
C 11.8565 17.0773 22.4705
O 11.7196 18.2513 23.2754
H 12.5381 18.193 23.7439
C 22.2981 6.05038 24.8059
O 21.1537 6.81928 24.4265
H 20.4927 6.7299 25.0959
C 22.7006 9.98386 28.67
O 21.4057 10.2281 28.1146
H 20.7801 9.96833 28.7735
C 27.8589 24.6076 7.88811
O 28.1034 25.5626 6.85219
H 27.5655 26.3071 7.07435
C 3.95298 16.19 9.10536
O 4.14408 16.2152 10.5223
H 4.90517 16.7377 10.7243
C 28.8836 18.6453 11.7827
O 27.838 18.8501 10.829
H 27.9318 19.7018 10.4304
C 22.2461 6.11206 1.32831
O 22.8175 5.55935 28.8921
H 22.1673 5.53468 28.2068
C 27.6545 17.2807 24.3195
O 27.1894 17.9026 25.5203
H 26.5547 18.5836 25.3579
C 2.34624 5.24872 5.53596
O 1.28663 4.46535 4.98057
H 29.3144 5.03011 4.75955
C 21.3115 17.3968 13.528
O 22.2631 18.3049 12.9671
H 22.4423 18.1078 12.0604
C 18.5217 5.83258 21.8827
O 17.7326 4.82538 21.244
H 17.5503 5.05011 20.3444
C 3.41365 9.1292 13.2402
O 2.59369 8.01082 12.8912
H 2.78212 7.88397 11.9739
C 7.31004 20.6299 20.5674
O 7.53284 20.1759 21.905
H 8.41615 20.3603 22.1857
C 19.5605 14.3879 2.83848
O 20.5403 13.6256 3.54813
H 21.3034 13.8169 3.02444
C 12.7193 10.412 10.6741
O 11.5899 9.97863 9.91154
H 11.8141 10.1022 9.00189
C 0.735766 20.8651 24.9441
O 29.0219 22.0005 25.6778
H 28.2903 21.6628 26.1717
C 5.25067 25.9463 0.802113
O 4.33865 25.8192 28.4606
H 3.9693 24.9792 28.6862
C 21.5247 2.49023 5.30284
O 21.8403 1.27004 4.62723
H 21.6722 29.3514 5.2709
C 8.42611 21.9356 4.844
O 7.5229 21.4129 5.82173
H 7.12148 20.6326 5.47103
C 6.42742 7.20211 10.6519
O 5.7796 8.47532 10.7165
H 6.29048 9.12297 11.1776
C 25.9964 11.758 5.95554
O 24.8795 12.3036 5.24857
H 24.2384 11.67 4.96491
C 18.9994 9.16877 23.2536
O 19.3834 9.31605 24.6232
H 19.2578 8.45643 24.995
C 5.23172 14.7577 26.9552
O 4.11691 15.2609 27.6961
H 4.29549 15.1188 28.6131
C 15.0224 24.1138 4.81408
O 14.3805 23.1938 5.7008
H 14.0388 23.7481 6.38562
C 18.5784 20.2153 28.3165
O 19.2615 20.1436 27.0623
H 18.7544 19.5674 26.511
C 15.998 13.6018 4.38685
O 16.022 14.0846 3.04105
H 16.1832 15.0132 3.11114
C 23.7817 23.3121 8.33653
O 23.8507 21.8993 8.54688
H 23.0201 21.6294 8.90785
C 21.554 10.3003 4.27084
O 22.5882 11.1959 3.8546
H 22.2431 11.9701 3.43679
C 18.4319 5.77144 1.03342
O 18.2265 7.1823 1.14381
H 17.4001 7.22779 1.59993
C 19.0775 1.2732 28.535
O 20.2808 29.2533 28.5557
H 20.8468 0.918054 29.1871
C 11.1452 4.49527 9.39522
O 11.8868 3.45212 10.033
H 11.4957 3.34755 10.8869
C 22.4031 26.4315 23.6001
O 21.5895 27.2687 24.426
H 20.8257 27.432 23.8941
C 12.5668 10.9664 3.70217
O 13.0776 10.1271 4.74109
H 13.238 9.25841 4.40531
C 15.0009 5.32531 10.7291
O 16.4099 5.14697 10.8957
H 16.7287 4.73454 10.1074
C 14.6947 13.5523 11.937
O 13.7244 12.9856 12.8215
H 12.9953 13.5705 12.9602
C 4.69277 0.947294 18.2988
O 3.58866 1.51299 19.01
H 3.72948 1.18712 19.8858
C 14.3332 13.9344 8.00888
O 14.5297 12.6537 8.61398
H 14.7438 12.1903 7.81868
C 2.89614 18.0246 1.89995
O 3.98625 18.8906 1.5735
H 4.31569 19.176 2.41197
C 1.80877 8.32636 25.2268
O 29.2183 7.87344 25.4168
H 28.6894 8.65018 25.5168
C 10.1421 19.8716 12.3632
O 11.1553 18.8782 12.5402
H 10.7481 18.034 12.4197
C 10.5768 8.3943 12.9309
O 10.1935 9.56436 12.2036
H 10.7407 9.52385 11.4342
C 27.8753 16.5517 28.5724
O 28.7311 17.3923 27.7941
H 28.3509 17.5088 26.9369
C 28.1182 29.1469 24.3419
O 29.1523 0.83466 23.4578
H 28.6474 1.27968 22.7944
C 26.5885 28.3228 14.3823
O 26.3703 0.683039 13.5111
H 25.4501 0.840216 13.6582
C 13.648 7.7811 7.61403
O 14.6415 7.23472 6.74259
H 15.1559 7.9779 6.46672
C 1.98702 14.7587 1.74535
O 3.05917 14.5293 2.66339
H 3.84192 14.9911 2.4044
C 18.7735 27.2446 3.11002
O 18.1549 27.6315 4.33985
H 18.3898 26.9124 4.90614
C 10.1028 12.0593 18.4079
O 10.65 10.7648 18.672
H 10.3679 10.6333 19.5643
C 2.60102 21.7506 11.3138
O 2.7531 21.2973 12.6615
H 3.60922 21.5675 12.9566
C 23.8779 25.0348 14.9232
O 22.8224 25.7567 15.5634
H 22.9654 25.7879 16.497
C 2.79643 22.3074 21.6611
O 3.76093 22.8762 22.5506
H 3.59739 22.6353 23.4497
C 24.9436 9.12783 3.03725
O 26.227 9.71206 2.79954
H 26.0091 10.6312 2.82783
C 7.568 15.2382 9.02995
O 7.30576 15.6875 7.69795
H 7.51122 16.6045 7.79807
C 13.7699 20.7419 9.6394
O 14.942 20.2311 10.2799
H 14.6335 19.4594 10.7297
C 9.27227 23.5632 18.6582
O 10.1982 24.0673 19.6244
H 10.8994 24.4356 19.1089
C 13.3917 26.015 24.1942
O 12.1248 25.3799 24.3852
H 11.8526 25.4008 23.4805
C 21.1478 13.2511 6.8691
O 20.0465 12.9551 6.0063
H 20.1918 13.3178 5.14586
C 8.14462 10.9961 4.87947
O 9.37251 11.1149 5.6027
H 9.27001 11.9257 6.07725
C 28.603 28.7135 19.807
O 0.78184 28.2245 18.8384
H 1.65075 28.5304 19.0491
C 6.63288 21.7887 1.50898
O 7.28471 20.6587 0.923223
H 7.08621 20.633 28.7522
C 20.352 20.9492 6.29037
O 20.5624 20.8053 4.88327
H 20.2927 19.9194 4.69476
C 20.44 2.80398 8.97104
O 21.7756 2.56224 8.52079
H 22.2721 3.36332 8.45168
C 28.6683 3.33332 21.0989
O 27.6867 2.67783 21.9061
H 26.8761 3.14354 21.7681
C 19.1268 22.5632 18.212
O 19.9882 22.4917 17.0728
H 19.5106 22.7654 16.3047
C 6.5215 6.24015 28.679
O 6.86205 7.59478 28.9854
H 7.20616 7.98458 28.1964
C 25.8846 13.2561 1.38028
O 25.2116 12.4572 2.35689
H 24.3084 12.629 2.13814
C 15.3477 3.52464 15.5884
O 16.0714 2.30094 15.4345
H 16.7224 2.29699 16.1195
C 20.3355 5.3668 11.2093
O 19.4692 6.21387 10.4498
H 19.1801 6.83504 11.1006
C 21.909 22.8624 27.2283
O 22.7169 23.2831 26.126
H 22.5206 22.6424 25.4596
C 3.1854 26.7714 21.2725
O 2.935 28.1529 21.0013
H 3.13628 28.6447 21.7827
C 28.5838 7.76588 6.80024
O 28.5766 9.16551 7.09329
H 28.2506 9.57895 6.30855
C 21.6717 3.40009 18.0254
O 22.5859 4.49741 17.954
H 23.2104 4.25504 17.2875
C 9.51033 25.658 26.9562
O 9.04829 26.8174 27.6543
H 9.63267 27.5579 27.7103
C 23.4986 10.3679 23.9188
O 23.0741 11.7015 24.2125
H 22.267 11.5804 24.689
C 17.9747 22.284 24.9165
O 16.7225 22.2344 24.2277
H 16.918 22.2211 23.3033
C 7.19855 10.6123 13.31
O 7.71242 10.1508 12.0578
H 8.65155 10.046 12.0487
C 26.175 2.9589 8.32568
O 27.1742 3.7348 7.65901
H 27.4353 3.0882 7.02124
C 18.8912 23.7927 13.7118
O 18.3998 23.337 14.975
H 17.7949 23.9963 15.2791
C 28.6473 25.0914 23.5396
O 28.8093 23.6894 23.3095
H 28.9269 23.2574 24.1418
C 17.1102 10.5784 26.911
O 16.9622 11.986 27.1155
H 17.7927 12.4359 27.0859
C 12.0922 4.6284 29.0505
O 11.2951 5.5117 28.2572
H 10.5313 5.05409 27.9408
C 13.5062 10.4272 17.193
O 12.3649 9.57347 17.0762
H 11.6676 9.97612 17.5708
C 15.7896 25.3056 11.8438
O 16.4664 26.1121 10.8761
H 16.1998 27.0042 11.0375
C 22.321 24.3237 5.58514
O 21.9086 25.3382 4.66564
H 22.057 25.0702 3.77168
C 11.7713 0.772468 3.02747
O 12.3904 0.775356 1.73845
H 13.3109 0.583192 1.83286
C 5.41166 27.7714 14.7159
O 6.36318 28.8067 14.976
H 5.83248 0.834033 15.0326
1500
 Atoms. Timestep: 30000
O 4.39424 19.4452 24.7669
H 3.84011 18.8004 25.2933
H 5.08386 18.9434 24.2448
O 19.799 14.4304 27.3343
H 19.4085 14.1391 26.461
H 20.6888 14.8581 27.1753
O 16.9352 20.5783 27.5134
H 16.1787 19.9604 27.2991
H 17.7979 20.0737 27.4782
O 4.78969 9.5643 6.55321
H 4.13476 10.0093 7.16398
H 4.99948 10.1736 5.78852
O 18.5856 19.8913 21.5883
H 18.9389 19.2282 22.2482
H 19.2723 20.6003 21.428
O 18.1397 25.0137 17.389
H 17.5246 25.7099 17.0189
H 18.9868 25.4469 17.6968
O 8.85287 14.3874 17.8048
H 8.09933 14.8743 17.3631
H 8.51851 13.5202 18.1739
O 27.3545 8.6868 22.8681
H 27.8248 9.56389 22.9659
H 27.9694 8.02489 22.4394
O 6.45852 18.2598 11.8561
H 6.44835 19.0769 12.4325
H 7.33822 17.7943 11.9533
O 13.2195 5.73523 20.2315
H 14.0584 5.42565 19.7838
H 13.3621 6.64941 20.6109
O 6.84056 20.642 13.7987
H 7.43437 20.3573 14.5513
H 6.88285 21.6361 13.6985
O 28.9213 19.3783 7.15984
H 0.897499 20.0067 6.88742
H 28.51 18.9713 6.34429
O 11.0966 28.3242 11.6901
H 10.1229 28.44 11.8865
H 11.3364 28.8483 10.873
O 23.5204 2.00431 25.5355
H 22.6652 2.50057 25.6849
H 23.9653 1.83451 26.4148
O 10.8995 12.0369 24.5484
H 11.6242 12.6563 24.8505
H 10.532 12.3549 23.6745
O 15.2287 15.2936 9.99434
H 15.9468 15.9876 10.0463
H 15.6283 14.3889 10.1425
O 13.7579 11.3227 27.4431
H 13.1794 11.0004 28.1924
H 13.963 10.5608 26.8287
O 13.7158 1.04543 20.2643
H 14.2485 1.6693 19.6924
H 13.1765 1.57317 20.9205
O 2.92972 1.38969 9.43166
H 2.36761 1.82642 8.7293
H 3.71403 0.943228 9.00091
O 27.2282 19.9693 9.46862
H 27.9175 20.0186 8.74584
H 27.4861 19.2627 10.1275
O 8.18218 11.0653 22.132
H 8.29164 10.1505 22.5209
H 7.25843 11.1615 21.7613
O 26.8684 22.746 6.92995
H 25.9515 22.9699 6.59964
H 26.823 22.5001 7.8982
O 13.2432 15.8765 24.922
H 13.1519 14.8814 24.9597
H 14.2089 16.1256 24.9954
O 25.5494 28.7298 12.314
H 24.6461 28.5355 12.6964
H 25.5868 0.930925 12.0152
O 26.7872 24.8226 1.47051
H 25.9006 24.6886 1.02768
H 26.8266 25.74 1.8666
O 1.91229 21.2893 6.41178
H 2.38872 22.1078 6.73288
H 1.51808 21.4654 5.50979
O 6.22606 5.27435 29.1167
H 5.69221 5.31057 1.20903
H 5.73799 4.72655 28.4373
O 5.24818 3.38591 9.12522
H 5.02694 4.35786 9.04542
H 4.65165 2.9632 9.80746
O 6.15784 24.8649 6.70366
H 6.79408 24.7103 7.45949
H 5.29467 24.397 6.89357
O 9.50916 21.2316 18.3199
H 9.40551 21.1509 19.3112
H 10.0954 22.0136 18.1086
O 3.5246 9.44548 19.8535
H 3.92112 8.60368 19.4872
H 3.57097 10.1648 19.1604
O 28.8151 24.0508 22.5364
H 28.8642 24.1876 23.5257
H 29.5046 24.6187 22.0868
O 18.2638 16.7338 19.5619
H 17.4757 17.296 19.8124
H 18.4806 16.8752 18.596
O 12.3407 9.35621 22.6863
H 11.6856 8.84398 23.2417
H 12.6433 10.1656 23.1896
O 25.6274 16.444 4.85601
H 25.025 17.2413 4.81719
H 25.1078 15.6485 5.16762
O 15.755 11.4594 5.30734
H 16.4193 10.9885 5.88794
H 15.4526 10.8436 4.57985
O 16.6436 5.37542 27.6169
H 15.8842 5.86723 28.0429
H 16.6724 4.43912 27.967
O 27.8304 11.4324 6.06583
H 26.9115 11.776 5.87225
H 28.3931 11.5031 5.24219
O 14.338 6.50364 28.7947
H 14.2178 6.1133 0.954967
H 13.5323 6.30256 28.2375
O 5.26132 12.776 9.33292
H 6.05265 12.1689 9.261
H 5.41714 13.4416 10.0628
O 1.3205 10.9403 16.9554
H 0.92458 10.0474 17.1698
H 29.3483 11.629 16.9305
O 16.5062 29.1203 27.1927
H 16.8659 28.2728 27.5831
H 15.5211 29.0285 27.0474
O 19.3217 8.35808 18.0521
H 19.1947 9.0508 17.3422
H 18.9178 7.49426 17.751
O 24.5161 24.1722 29.2822
H 24.417 24.2125 28.2879
H 23.9031 23.4731 0.897703
O 2.13379 29.3221 4.98914
H 2.07712 28.4438 4.51431
H 2.18616 1.30874 4.31767
O 2.75173 4.18668 1.03178
H 3.49246 4.52464 1.61238
H 2.30749 4.95775 29.3281
O 13.7836 17.95 13.2999
H 12.9816 18.3219 13.7673
H 13.4993 17.5133 12.4464
O 24.3679 7.75231 14.7815
H 23.8824 7.7667 13.9074
H 25.0688 7.03931 14.7618
O 6.48164 23.2833 14.1303
H 6.44373 23.6716 15.051
H 6.87018 23.9559 13.5005
O 1.1497 6.26195 28.4626
H 29.274 6.3229 27.6869
H 1.09543 7.10205 29.0022
O 16.3594 18.3069 20.6781
H 16.9194 19.113 20.8694
H 15.4171 18.5904 20.5
O 27.7697 10.1333 2.04757
H 26.8168 10.4166 2.15565
H 28.3038 10.455 2.8294
O 26.2835 18.0395 20.3125
H 26.6336 17.1203 20.1321
H 26.3007 18.5744 19.4678
O 23.4967 12.8153 19.0118
H 23.1777 11.9395 19.3741
H 23.5426 13.4856 19.7524
O 15.8365 16.5629 25.2282
H 16.3323 16.7639 24.3834
H 16.2318 15.7532 25.6621
O 25.2334 2.08058 15.8433
H 24.3948 1.87304 15.3396
H 25.8689 2.56933 15.2456
O 10.2239 22.1379 27.6017
H 10.2228 21.2259 28.0119
H 9.6908 22.7613 28.1737
O 5.6747 9.5381 17.0559
H 6.21462 9.76296 16.2448
H 4.83184 10.0762 17.055
O 17.3764 9.1561 6.82949
H 18.2317 9.14599 6.31137
H 16.7045 8.57127 6.37507
O 3.35341 10.943 8.34809
H 3.95248 11.6225 8.77159
H 2.57263 11.4038 7.92614
O 10.8538 21.6512 24.8019
H 11.3936 22.4109 24.4391
H 10.5715 21.8602 25.7382
O 8.99472 8.10635 23.3109
H 8.07262 7.96803 22.9496
H 9.5951 7.37832 22.98
O 17.4751 5.54536 25.1527
H 17.1275 5.50628 26.0895
H 17.45 4.63062 24.7494
O 1.75517 2.4086 7.06584
H 2.00095 1.72875 6.37489
H 2.26576 3.25223 6.89978
O 13.0276 5.16905 7.82463
H 12.7568 6.09048 7.54595
H 13.8674 5.21762 8.36537
O 19.3846 4.05382 13.9744
H 19.162 4.96857 13.6372
H 20.2715 3.77065 13.6092
O 27.1193 14.9379 19.6569
H 28.0318 15.0927 20.0357
H 26.5839 14.3831 20.2936
O 9.6845 17.8818 15.9483
H 9.95618 17.2448 16.6697
H 10.4969 18.1933 15.4554
O 4.37776 19.1235 28.0082
H 4.9627 19.8279 28.4104
H 4.94319 18.4621 27.5155
O 28.031 5.45064 26.5439
H 27.1816 5.76411 26.9684
H 27.8206 4.97108 25.692
O 6.82984 16.1391 7.08605
H 6.8871 16.9821 7.62097
H 6.01698 15.6251 7.35997
O 8.00087 16.2033 4.74305
H 7.35812 16.1204 5.50462
H 7.57954 15.8434 3.91061
O 6.47616 18.5616 9.11739
H 6.34555 18.3956 10.0948
H 5.58506 18.6236 8.66784
O 2.66038 17.1999 25.8299
H 2.27934 16.9979 26.7321
H 3.17135 16.4067 25.4986
O 25.1548 15.3369 28.211
H 25.8785 15.7663 27.6707
H 25.2527 15.6024 29.1701
O 16.2765 20.635 4.96534
H 16.2098 20.2729 4.03557
H 16.1162 21.6219 4.951
O 22.0523 9.83216 26.5731
H 22.5179 10.2409 25.7881
H 22.5918 9.06392 26.9177
O 12.1291 23.7904 11.9416
H 12.1345 23.4242 11.011
H 12.5665 23.137 12.5594
O 5.48708 11.1662 1.87342
H 5.50002 11.8842 1.17754
H 5.76113 10.2974 1.46102
O 23.9546 15.8504 13.8157
H 23.8201 16.8365 13.9131
H 24.5743 15.5263 14.5305
O 12.1888 18.6477 18.4757
H 11.8918 17.701 18.6004
H 11.3927 19.226 18.2973
O 1.85229 7.22439 10.8874
H 2.7341 7.66128 10.7098
H 1.16752 7.58648 10.2549
O 21.7976 6.3003 0.69008
H 20.8105 6.43712 29.3592
H 21.9764 5.41339 1.11604
O 23.4586 23.9768 16.1337
H 23.6633 23.0076 15.9965
H 23.9425 24.3082 16.9437
O 20.1689 18.3149 23.4633
H 19.3677 17.9662 23.9496
H 20.4626 17.6449 22.7814
O 28.3185 27.7299 8.44918
H 28.3065 26.8756 7.92957
H 27.6542 27.6758 9.19477
O 9.33008 10.0061 25.2569
H 9.9946 10.7004 24.9806
H 9.07489 9.45422 24.463
O 29.0792 7.60318 25.4473
H 28.7361 6.72845 25.7896
H 28.3253 8.2577 25.3905
O 16.8669 8.57716 15.2756
H 17.5575 9.29885 15.2274
H 16.8168 8.10448 14.3958
O 14.2712 19.0465 0.820483
H 14.2928 18.8381 28.5952
H 13.3585 18.8558 1.18185
O 24.4599 4.31489 24.2057
H 23.7314 4.7559 23.6814
H 24.1296 3.44278 24.5667
O 26.1258 15.7851 11.6839
H 25.3318 15.771 12.2916
H 25.8189 15.8784 10.7367
O 20.334 16.4773 21.2897
H 19.523 16.532 20.7072
H 21.153 16.6275 20.736
O 0.744144 16.0559 20.434
H 1.47332 16.0485 19.7498
H 0.843618 16.8614 21.0183
O 6.65411 15.042 2.62598
H 6.99594 15.5637 1.84435
H 5.7941 14.5958 2.37847
O 28.8458 11.396 23.5349
H 28.9892 12.3333 23.8526
H 29.492 11.1905 22.8
O 22.1001 23.7713 22.432
H 22.3666 22.9595 22.9515
H 22.4552 24.5887 22.8856
O 28.599 21.675 4.82459
H 28.2561 22.0703 5.67678
H 28.3889 20.6976 4.80229
O 8.10986 20.0732 26.5886
H 8.70005 19.7018 27.3054
H 8.66916 20.3548 25.809
O 29.441 18.39 22.2991
H 28.4618 18.5164 22.458
H 1.15377 19.2726 22.3664
O 11.5978 3.50343 6.5154
H 12.1483 4.15415 7.03842
H 10.9029 3.10037 7.11094
O 14.2817 23.0216 25.5609
H 14.4173 22.5038 24.7162
H 13.5413 23.6814 25.4322
O 16.4492 15.108 6.98791
H 15.9068 15.0214 7.8236
H 16.8372 16.0282 6.93627
O 2.43486 17.4936 28.9249
H 2.76208 16.5487 28.9224
H 3.17355 18.1029 28.6367
O 27.9844 1.55614 9.61539
H 28.0454 29.3729 9.26795
H 28.3409 2.19033 8.92933
O 24.9014 15.8106 8.98394
H 25.0096 16.7968 8.85866
H 24.2138 15.6377 9.68917
O 17.442 26.8617 28.1141
H 16.9483 26.0764 28.4878
H 18.2065 26.5398 27.5556
O 27.7666 22.3438 2.37316
H 28.1414 22.2373 3.2941
H 27.4987 23.2967 2.23051
O 2.09993 3.00419 15.3277
H 2.79383 3.62529 14.9634
H 1.60859 3.45395 16.0735
O 29.4785 8.62335 0.711251
H 1.26137 9.24128 28.888
H 28.7299 9.13052 1.13838
O 28.5066 6.80902 15.2877
H 28.9614 7.07226 14.437
H 27.6892 6.27295 15.0767
O 13.6958 5.4371 2.46157
H 14.4782 5.58115 3.06741
H 13.025 4.85162 2.91687
O 13.0907 12.5947 6.06293
H 12.9842 13.5647 5.8442
H 14.0618 12.3821 6.17145
O 22.2826 5.4234 23.1692
H 21.5147 5.88458 23.6138
H 22.5688 5.94936 22.3683
O 25.4101 15.0448 16.0675
H 25.9701 15.7445 16.5111
H 25.5989 14.1546 16.482
O 16.3172 20.3631 15.3574
H 16.0865 20.1189 16.2993
H 16.3785 21.3579 15.2764
O 0.973564 12.1387 8.00097
H 0.967664 13.1309 8.12549
H 28.8706 11.8517 7.56987
O 17.2326 2.79341 28.3558
H 16.9948 2.04908 27.7318
H 16.982 2.53834 29.2897
O 16.5102 23.2512 27.1952
H 15.6371 23.266 26.7077
H 16.6843 22.3285 27.539
O 8.29839 28.2117 11.9051
H 7.75627 27.6433 12.524
H 7.85261 29.0996 11.7915
O 2.58373 23.2939 18.7663
H 2.22016 23.4661 17.8508
H 1.85016 22.9617 19.3593
O 3.37302 17.2097 22.4194
H 2.50546 17.633 22.6804
H 4.10067 17.5443 23.0182
O 5.58572 11.2596 4.57351
H 5.31988 11.1278 3.61855
H 6.54223 11.5481 4.61643
O 13.3173 13.1458 25.2414
H 14.009 13.0379 24.5274
H 13.4537 12.4491 25.9457
O 23.6994 5.57815 11.5598
H 24.5645 5.31458 11.133
H 23.582 6.56884 11.4909
O 19.4883 10.4305 27.4368
H 20.2221 9.91783 26.9911
H 19.872 10.9936 28.1687
O 10.1307 5.77295 26.1062
H 9.73513 5.58502 27.0052
H 9.41632 5.71446 25.4089
O 11.2186 1.5483 9.6659
H 10.4808 1.84688 9.06049
H 11.5797 2.33607 10.1649
O 28.8383 9.37303 9.33265
H 28.9194 10.3693 9.30268
H 28.7683 9.01614 8.40112
O 14.1386 26.1429 9.88903
H 14.6072 26.8294 9.33302
H 14.3866 25.2286 9.56884
O 19.7989 22.3415 20.9025
H 20.6192 22.5587 20.3735
H 19.9057 22.6805 21.8372
O 8.51615 20.4968 15.9802
H 8.68646 19.5128 15.9276
H 8.79175 20.8351 16.88
O 21.8808 23.1756 19.5895
H 22.1687 23.539 20.4755
H 22.6341 22.6615 19.1793
O 9.09872 17.5307 12.7988
H 9.68067 18.3434 12.7704
H 9.51077 16.8466 13.4007
O 7.19265 16.9315 0.925107
H 8.1879 16.98 1.00953
H 6.92585 17.1627 28.742
O 7.85395 12.8913 4.17876
H 8.55556 13.4593 4.60898
H 7.43351 13.3952 3.42427
O 5.56668 21.187 8.80446
H 6.40876 20.7152 9.06572
H 4.92795 20.5309 8.4025
O 12.6651 27.6721 13.8412
H 13.194 26.8386 13.6812
H 12.1878 27.9304 13.0013
O 24.0698 24.9688 26.6676
H 23.0739 24.8787 26.6585
H 24.3209 25.914 26.4591
O 22.7268 15.0108 24.2779
H 23.0379 14.6012 25.1355
H 23.2142 15.8701 24.1228
O 22.9252 27.9014 25.8887
H 23.0236 27.9518 26.8825
H 23.0626 28.8097 25.4936
O 6.2785 7.54314 7.6
H 6.8348 7.13151 6.87813
H 5.74013 8.2945 7.21841
O 1.53208 14.538 3.17439
H 0.816768 14.771 3.8332
H 1.33755 14.9825 2.3
O 2.90237 27.3222 18.3618
H 2.90203 27.1837 19.3521
H 2.35557 26.6078 17.9251
O 22.8058 23.3168 12.949
H 22.8524 24.2574 13.2854
H 22.0154 22.8569 13.3536
O 15.6974 5.54028 18.5827
H 16.676 5.63437 18.3996
H 15.1856 6.15656 17.9843
O 0.652971 18.4572 2.3989
H 0.987848 19.0308 1.65128
H 0.748225 17.4938 2.14833
O 6.84872 13.8794 26.1808
H 6.83971 12.9222 25.8913
H 6.34992 14.4338 25.5146
O 24.5276 19.4994 21.839
H 25.125 20.1626 22.2899
H 25.0809 18.868 21.2956
O 21.3786 8.84902 20.374
H 22.1307 8.19216 20.4277
H 20.8603 8.69432 19.533
O 17.8625 10.4986 9.29058
H 17.6871 9.95082 8.47258
H 17.3045 10.1568 10.0467
O 10.907 16.1221 17.9546
H 10.2376 15.3792 17.945
H 11.8302 15.7393 17.9221
O 4.30052 6.11471 8.90344
H 5.00978 6.60384 8.3958
H 4.28953 6.433 9.85137
O 10.2959 24.8367 5.70886
H 9.90737 25.5472 6.29554
H 9.77095 23.9923 5.81582
O 12.2247 27.9092 5.4729
H 12.0856 27.018 5.04131
H 11.4422 28.5002 5.27701
O 14.8467 23.4231 8.86524
H 15.4093 22.7396 9.33042
H 13.8802 23.1941 8.98111
O 27.2972 16.7933 17.6352
H 27.9042 17.4695 18.0528
H 27.3682 15.9291 18.1332
O 26.0138 16.5742 1.83094
H 25.7732 16.5796 2.80155
H 26.9827 16.3486 1.72898
O 12.5805 23.4834 6.70807
H 11.8884 24.07 6.28745
H 12.658 23.7039 7.68038
O 22.9919 1.81407 14.4033
H 22.4018 2.38171 13.8292
H 23.1557 0.938175 13.9495
O 11.5379 10.4742 6.1306
H 10.6619 10.5421 5.65317
H 12.1334 11.2243 5.84289
O 19.589 4.07754 0.882021
H 19.2283 4.98885 29.8331
H 18.9564 3.59303 29.0303
O 17.5057 15.2778 16.9621
H 18.1661 16.0088 16.7902
H 16.5855 15.6656 17.0152
O 10.37 19.4912 28.1728
H 10.4261 18.7158 27.5439
H 10.7561 19.2312 29.0578
O 14.9202 8.23722 5.7059
H 15.0382 7.41599 5.14764
H 14.0062 8.236 6.11161
O 12.121 22.7818 9.52692
H 11.2531 23.2694 9.43201
H 12.066 21.9068 9.046
O 19.7679 8.90113 5.5373
H 20.0368 8.34106 6.32089
H 19.9088 8.38332 4.69349
O 26.1044 5.44802 15.0643
H 26.2927 4.62311 14.5314
H 26.0516 5.21299 16.0349
O 10.4566 19.6966 22.8521
H 11.1796 19.0085 22.9133
H 10.5497 20.346 23.6068
O 6.09122 17.8988 23.0918
H 6.15161 17.9718 22.0963
H 6.99717 18.0376 23.4918
O 6.04132 13.007 17
H 5.92676 12.5152 16.1369
H 6.79044 12.5971 17.5204
O 14.7577 7.55376 16.7885
H 15.6032 8.05827 16.6138
H 14.2793 7.96374 17.5651
O 23.1369 28.0158 13.4713
H 22.4971 27.9951 12.7031
H 22.9745 27.2251 14.0617
O 25.6861 4.15255 17.4638
H 25.2678 3.39655 16.9603
H 26.5698 3.86073 17.8297
O 3.75345 11.3861 17.6364
H 2.80877 11.264 17.332
H 4.03544 12.3321 17.4769
O 16.6191 23.14 15.3254
H 16.7361 23.8757 14.6582
H 17.3009 23.2362 16.0506
O 20.5304 25.4894 18.7287
H 21.0232 26.3032 19.0369
H 20.8523 24.6918 19.2388
O 7.02226 1.68877 11.1419
H 7.02909 2.02171 10.199
H 7.70056 2.19147 11.6778
O 3.48629 14.7673 24.7743
H 4.32258 14.6994 24.2303
H 2.6995 14.5213 24.2082
O 15.6567 23.2025 21.3232
H 16.0833 22.657 22.0447
H 16.2186 23.1603 20.4971
O 15.3638 2.8101 18.7302
H 15.6455 3.76942 18.7117
H 14.6123 2.67087 18.0854
O 9.93549 22.0787 5.82334
H 10.9 21.8939 6.01201
H 9.46446 21.2196 5.62315
O 5.99065 15.2627 18.8901
H 6.68488 15.9018 18.559
H 5.86492 14.5308 18.2204
O 3.59538 15.7981 20.0066
H 3.69369 16.2508 20.8928
H 4.43569 15.3005 19.7915
O 4.47524 29.3157 17.3927
H 3.78904 28.6658 17.7193
H 4.49125 29.3092 16.3929
O 29.3027 25.8465 1.0095
H 29.1833 26.7689 29.3946
H 28.5196 25.2809 0.751106
O 25.9823 2.69342 11.3274
H 25.8292 3.47462 10.7222
H 26.6228 2.05808 10.8961
O 26.5217 22.4763 9.60974
H 26.9268 21.5625 9.57945
H 25.9311 22.5526 10.4131
O 23.8767 26.3297 1.92362
H 23.9914 25.4684 1.42861
H 23.1697 26.2208 2.62241
O 23.2054 13.4743 21.9935
H 22.6953 12.6159 21.9384
H 22.9209 13.9793 22.8083
O 8.53277 18.0149 24.1268
H 9.1958 17.3308 24.4308
H 9.01754 18.8157 23.7751
O 28.5006 21.0617 28.7994
H 27.7992 20.3552 28.8943
H 28.4262 21.7092 0.80527
O 23.8403 20.0688 28.2903
H 23.8236 20.9182 27.7628
H 24.7824 19.7423 28.3667
O 26.0191 19.2091 17.5357
H 26.4194 18.3003 17.4178
H 25.7785 19.5859 16.6412
O 11.0391 28.0877 20.5025
H 11.322 27.1379 20.3686
H 11.8399 28.6844 20.4509
O 16.4476 17.7785 14.0651
H 15.548 17.5814 13.6754
H 16.4419 18.6923 14.4712
O 7.64835 26.0613 13.4935
H 8.61212 26.0663 13.7602
H 7.10079 26.4862 14.2143
O 25.2107 12.1144 17.0163
H 24.5845 12.4239 17.7319
H 25.0601 11.1417 16.8395
O 10.4657 25.7321 10.6096
H 10.5488 26.668 10.9519
H 11.157 25.1554 11.045
O 28.4998 21.3511 23.8548
H 29.3558 21.0996 24.3064
H 28.6997 21.9029 23.0451
O 17.3724 23.0445 19.1902
H 18.0443 22.6384 19.8096
H 17.7581 23.8674 18.7731
O 14.87 12.5338 1.36646
H 14.7157 12.1695 29.2006
H 14.5891 13.4931 1.39606
O 11.5535 18.3544 1.82245
H 11.0674 18.7506 2.60137
H 11.2455 17.4137 1.6807
O 14.881 23.1607 5.20342
H 15.5657 23.5418 5.82472
H 13.9729 23.2514 5.6121
O 27.388 4.44714 8.37185
H 27.7109 3.93867 7.57358
H 28.1706 4.72397 8.92954
O 10.8014 8.26484 26.7515
H 10.2193 8.93174 26.2864
H 10.4504 7.34321 26.5861
O 6.45397 29.251 24.39
H 6.68366 1.10386 23.628
H 6.94459 28.3856 24.2878
O 13.5799 21.7543 13.2313
H 13.2373 20.8306 13.4033
H 13.9273 22.145 14.0837
O 16.0697 20.9126 18.2123
H 16.5114 21.6874 18.6644
H 15.352 20.5461 18.8044
O 16.6903 12.5751 16.3716
H 17.2242 13.3516 16.7065
H 16.1485 12.8595 15.5807
O 13.8586 17.2088 7.38535
H 13.9123 18.2061 7.43542
H 14.185 16.8139 8.2441
O 26.4574 18.618 28.6346
H 26.4718 18.0084 29.4272
H 26.9579 18.1948 27.8794
O 2.3205 26.2024 15.4808
H 3.26136 26.3586 15.1801
H 1.71713 26.8733 15.0497
O 14.9247 28.5008 8.48097
H 13.9752 28.42 8.78421
H 14.9687 29.095 7.67788
O 23.312 21.1938 15.8385
H 23.6929 20.3092 15.5693
H 22.4929 21.3827 15.2969
O 15.6099 24.9667 29.2069
H 15.8687 24.4428 28.3955
H 15.6151 24.3667 1.25435
O 7.02478 1.64837 8.00424
H 6.35816 2.22887 8.47182
H 6.56536 0.836142 7.64478
O 27.797 18.6196 4.6476
H 26.8742 18.2393 4.5852
H 28.2582 18.5217 3.76568
O 24.0135 21.9537 18.3419
H 24.7876 21.4099 18.666
H 23.6566 21.5551 17.4971
O 17.5369 13.8522 22.3656
H 17.5567 13.2366 21.5778
H 18.4655 14.1618 22.5701
O 28.9665 1.82544 13.8956
H 29.4703 1.50175 13.0947
H 0.846526 2.26942 14.5303
O 18.7799 10.6548 15.9698
H 17.9922 11.2154 16.2254
H 19.6206 11.1783 16.1081
O 13.675 24.8976 22.2135
H 13.9183 25.8285 21.9411
H 14.4218 24.2756 21.9782
O 23.9538 27.7908 28.2775
H 23.8904 28.6624 28.7635
H 23.7846 27.04 28.916
O 9.706 23.3013 8.38322
H 9.2892 22.8135 7.61622
H 9.20635 24.1516 8.54845
O 17.013 16.5672 22.7594
H 16.6254 17.0175 21.9551
H 17.3529 15.6622 22.5033
O 4.06466 13.5727 2.68727
H 4.56646 13.0762 3.39555
H 3.19949 13.9052 3.06269
O 26.1325 13.9416 7.62059
H 25.3465 13.4555 7.23847
H 25.816 14.6098 8.29389
O 16.3985 14.3588 26.6354
H 16.3501 14.4282 27.6318
H 17.0751 13.6675 26.3819
O 24.5963 18.8946 14.8984
H 25.4745 18.792 14.4311
H 23.8534 18.6971 14.2589
O 3.55377 0.768753 14.5898
H 3.04855 1.558 14.9389
H 3.18089 29.2531 13.7015
O 28.0823 12.607 17.0569
H 28.1552 13.1994 17.8593
H 27.1194 12.4047 16.8784
O 28.3651 15.4501 4.94615
H 28.5904 15.2566 5.90103
H 27.5048 15.958 4.903
O 0.940928 4.71731 17.0725
H 29.297 5.4916 16.5793
H 29.2038 4.58508 17.9343
O 14.5975 19.7386 6.88317
H 14.882 20.1673 7.74066
H 15.3443 19.7916 6.22022
O 26.6833 3.07553 13.8505
H 26.3658 2.90227 12.9182
H 27.5839 2.66008 13.9785
O 17.6015 27.7605 7.96676
H 16.6122 27.8791 8.05202
H 17.8071 27.2772 7.1158
O 22.8842 22.2286 1.34682
H 23.454 21.4576 1.0621
H 21.9761 22.141 0.937469
O 4.58261 2.6693 12.0905
H 3.99129 1.89423 12.3132
H 5.45903 2.33196 11.7468
O 16.9049 25.3313 14.0877
H 17.085 26.0077 14.8019
H 16.1337 25.6347 13.5281
O 19.109 12.7394 29.3037
H 18.4142 13.2848 1.02006
H 19.4027 13.2151 28.4746
O 14.8182 3.14028 4.49787
H 13.8362 3.16479 4.31036
H 14.9945 2.533 5.27255
O 20.3577 14.6116 23.0337
H 21.1705 14.6334 23.6158
H 20.4114 15.3474 22.3586
O 22.1699 20.5694 23.3912
H 22.9437 20.4711 22.7653
H 21.5633 19.7799 23.2979
O 2.45609 27.5845 7.62727
H 2.81691 27.8387 6.72995
H 1.46205 27.6935 7.6299
O 14.2658 25.5517 12.6688
H 14.3297 25.949 11.7534
H 13.5614 24.8419 12.6757
O 28.7182 18.2602 11.0333
H 0.665764 18.8279 11.4665
H 28.772 17.3299 11.396
O 16.6257 13.9904 4.51142
H 16.3689 13.0274 4.59277
H 16.5998 14.4197 5.41422
O 12.106 3.48574 3.87978
H 11.7234 2.67955 3.42848
H 11.8117 3.504 4.8353
O 13.6051 1.43038 6.54984
H 13.0477 29.4927 6.08839
H 13.0099 2.1319 6.94176
C 24.8446 19.4394 7.31352
O 24.937 19.1746 8.71574
H 25.7636 19.5499 8.9783
C 10.6884 19.7441 8.62836
O 11.873 20.4258 8.20781
H 12.046 20.2344 7.2987
C 8.57572 25.4668 27.8001
O 8.67617 24.2771 28.5872
H 7.81922 24.2714 28.9855
C 6.92882 8.5074 27.8194
O 6.68595 8.36857 29.2217
H 6.81448 7.43976 29.3393
C 3.62918 26.4365 21.5269
O 2.4026 27.0137 21.0718
H 1.97374 27.4527 21.7904
C 22.5479 26.3489 10.9244
O 22.0361 27.6836 10.9641
H 21.2435 27.6718 10.4497
C 25.3967 22.8214 23.5159
O 25.7496 21.4357 23.5306
H 26.6469 21.4838 23.8232
C 23.3493 27.858 17.8621
O 22.7744 27.1645 18.9727
H 23.3016 26.384 19.049
C 13.6211 3.36043 27.0984
O 12.4737 2.5304 27.2967
H 12.7658 1.69532 27.6289
C 7.40579 1.78611 2.41253
O 8.72336 1.62306 1.88118
H 8.64352 1.57871 0.940601
C 27.9551 18.1411 14.6799
O 26.938 18.2931 13.6862
H 27.33 17.9358 12.904
C 1.24263 22.7895 15.4314
O 1.78867 23.7641 16.3241
H 1.94887 24.5562 15.8343
C 19.4354 18.2983 16.8226
O 19.7355 16.903 16.9123
H 20.6691 16.7895 16.8196
C 3.74613 19.6948 14.8888
O 4.22205 19.9307 13.5611
H 5.03075 20.4108 13.6533
C 20.3492 4.16885 26.2614
O 20.91 2.85823 26.1488
H 20.2217 2.47598 25.6262
C 25.4111 21.2226 12.7089
O 25.0536 22.2425 11.7725
H 24.3527 22.7659 12.13
C 3.21032 26.5638 2.86423
O 2.00281 27.177 3.32345
H 1.26421 26.8117 2.86078
C 25.0521 4.59275 4.15892
O 24.7221 3.9729 2.91321
H 24.1884 3.22624 3.13838
C 26.3142 28.8134 2.1014
O 26.2922 27.3881 2.21547
H 25.4576 26.9851 2.0311
C 18.131 29.2898 19.7152
O 17.6355 1.80734 20.1468
H 17.1035 2.09145 19.4193
C 4.04421 5.95707 13.6754
O 4.09847 4.57335 14.0322
H 4.26534 3.93111 13.3593
C 22.7507 13.8528 11.3554
O 23.0738 15.2103 11.0431
H 23.2304 15.5912 11.8937
C 26.7082 25.8857 10.8309
O 26.92 27.257 10.4853
H 26.5496 27.722 11.2198
C 26.4503 6.78729 10.7115
O 26.1731 5.38788 10.613
H 26.6492 5.02258 9.88302
C 0.945872 3.56595 3.68512
O 1.99608 2.64873 3.36781
H 2.0981 2.78899 2.43886
C 22.0442 17.2341 28.4897
O 21.5714 18.5501 28.1904
H 22.2394 19.2111 28.2902
C 9.61195 5.05758 0.738591
O 8.77501 5.29694 28.3566
H 7.8781 5.29549 28.6542
C 22.1251 11.7034 15.0729
O 21.3503 12.1169 16.2015
H 21.8348 12.4492 16.9417
C 16.7948 11.2157 12.7443
O 16.648 10.2447 11.7048
H 15.9646 9.65419 11.9827
C 3.4907 7.91883 26.8789
O 2.78358 8.51143 25.7863
H 1.94291 8.08805 25.7024
C 5.7101 27.8486 4.92055
O 4.81314 26.9795 5.61696
H 5.35873 26.2494 5.86645
C 17.0667 15.8947 1.98735
O 17.4968 14.5427 2.1667
H 17.218 14.2393 3.01714
C 15.541 27.8864 16.1347
O 16.7659 27.1485 16.132
H 17.4266 27.8219 16.1866
C 8.65468 10.6565 18.6556
O 8.10486 11.9622 18.8499
H 7.55073 11.87 19.6098
C 7.79209 11.7863 28.5523
O 6.73939 12.748 28.6611
H 6.77162 13.2409 27.8554
C 8.80065 3.13421 18.2102
O 7.80664 3.84772 17.4701
H 6.93353 3.57652 17.7092
C 4.77026 12.0171 13.9549
O 5.86597 11.5927 14.7698
H 6.55646 11.22 14.2432
C 21.5497 11.1704 8.81162
O 20.7782 11.7304 9.87752
H 19.8783 11.5133 9.68785
C 3.44451 3.97022 26.713
O 4.42425 3.77239 27.7356
H 3.87346 3.76314 28.5035
C 27.7409 3.12953 23.5641
O 27.2324 4.1724 24.4001
H 26.3314 4.34497 24.1734
C 22.4396 9.03734 12.0483
O 23.5261 8.31872 11.4584
H 24.1529 8.94437 11.1287
C 6.95543 25.9653 17.3028
O 6.53281 24.7912 16.6044
H 5.95825 24.4099 17.2506
C 17.5503 10.9491 19.7528
O 17.6361 12.342 20.065
H 18.1729 12.7119 19.3809
C 14.5648 7.34938 12.5034
O 14.6366 8.70462 12.0528
H 13.8842 9.15376 12.4067
C 1.31588 12.4307 20.2266
O 1.4871 11.2829 21.0621
H 1.8125 10.601 20.4945
C 24.2711 19.2911 3.2041
O 23.9722 18.3727 4.25866
H 23.1097 18.0824 4.00382
C 9.93503 14.3082 6.82472
O 9.93647 14.2043 5.39851
H 9.80413 15.1028 5.13728
C 1.92303 7.27741 22.3411
O 0.781968 6.54301 22.7923
H 0.567491 6.72685 23.6941
C 22.7476 12.9854 27.2283
O 23.3244 14.1936 26.7259
H 24.0215 14.3873 27.3338
C 14.8567 12.3469 22.085
O 15.1466 13.0109 23.3178
H 15.9267 13.5381 23.2363
C 19.7877 0.791796 16.5571
O 18.476 29.1414 16.1546
H 18.2002 29.6282 15.3931
C 9.91885 2.48901 13.4398
O 8.66475 2.8955 12.8858
H 8.23062 3.49862 13.4696
C 13.5481 15.7211 28.1704
O 14.3489 14.661 28.6995
H 14.2237 13.9267 28.118
C 20.4965 7.77584 8.8901
O 20.5616 7.31851 7.53677
H 21.485 7.16364 7.40889
C 7.06686 14.3958 22.9142
O 5.82934 15.0514 23.2034
H 5.95011 15.9373 22.8974
C 5.22436 2.68892 5.41257
O 5.15285 4.117 5.43193
H 4.38341 4.32935 5.93779
C 24.2072 7.18271 7.40632
O 23.1933 6.18976 7.58208
H 23.6264 5.37148 7.77132
C 24.5144 2.46157 7.36215
O 24.5479 3.86314 7.64391
H 25.3782 4.07099 8.04453
C 19.6183 5.69786 20.8104
O 19.0981 4.52563 20.1779
H 18.6869 3.97233 20.8243
C 28.0962 22.457 19.1463
O 29.0841 22.7982 20.1222
H 28.6191 23.285 20.7854
C 22.683 23.06 9.61411
O 22.7487 21.9214 8.75154
H 23.3675 21.3027 9.10832
C 26.2203 22.4458 26.8777
O 24.8281 22.162 27.0387
H 24.3936 22.6165 26.3332
C 4.87553 3.92524 21.8975
O 5.7528 3.74152 23.0118
H 5.67869 2.81441 23.1791
C 28.7794 14.6016 23.2323
O 1.28603 13.9243 23.2066
H 1.57637 14.0681 22.3188
C 23.3325 16.8295 17.4615
O 22.4346 16.5174 16.3932
H 22.9338 15.8965 15.8848
C 26.536 28.7852 25.9076
O 26.332 28.4315 27.278
H 25.3912 28.3603 27.3314
C 14.1778 28.1982 25.1202
O 13.7988 28.6616 26.4189
H 13.6382 27.9374 27.0043
C 11.819 15.7531 10.7942
O 12.9672 16.2238 11.5047
H 13.7043 15.976 10.9678
C 13.5358 20.7215 20.5109
O 14.2416 19.6671 19.8514
H 13.6684 19.1649 19.2925
C 6.06439 0.860133 20.449
O 6.70403 1.26899 21.6608
H 7.63107 1.3883 21.5216
C 12.5262 3.50792 17.1711
O 13.1004 2.25904 17.5653
H 12.9266 1.51363 17.0111
C 28.2448 26.4053 18.2528
O 26.8871 26.8018 18.0428
H 26.8817 27.6616 17.6506
C 14.7685 7.61578 25.9719
O 13.893 8.74591 25.9378
H 12.9927 8.53087 26.1284
C 17.1147 2.89888 23.164
O 17.7299 3.15039 24.4301
H 17.8911 2.26845 24.7288
C 14.9064 17.7198 17.0136
O 15.2842 16.4678 16.4352
H 15.6092 16.6618 15.5693
C 8.78612 27.2886 7.98216
O 9.3034 25.9566 8.03747
H 9.96611 25.8658 8.705
C 13.7272 18.99 25.8409
O 14.8933 18.7022 26.617
H 15.3883 18.1248 26.056
C 21.3848 19.8133 19.6308
O 22.186 18.7113 20.0649
H 23.0263 19.0139 20.3739
C 26.3018 27.5587 21.7809
O 26.892 28.7883 22.2105
H 26.1344 0.562743 22.4139
C 20.8682 25.4983 28.2681
O 21.3162 25.201 26.943
H 20.6299 24.8962 26.3693
C 20.4467 14.4247 18.6673
O 19.3605 13.5291 18.4162
H 18.7366 14.0169 17.9007
C 8.62887 17.6291 20.5263
O 7.48093 18.4743 20.6393
H 7.48556 19.2282 20.0695
C 3.7099 18.1401 6.79377
O 3.95913 19.2953 7.599
H 3.2573 19.8813 7.36016
C 21.0992 2.42665 21.6053
O 22.3029 2.94799 22.1748
H 22.018 3.80616 22.4494
C 10.0464 15.2227 25.149
O 10.7858 16.4439 25.2308
H 11.7041 16.2376 25.1463
C 25.4614 10.798 8.98081
O 24.8919 10.123 10.1055
H 25.4661 10.3669 10.8153
C 10.4736 14.4237 14.3087
O 10.961 15.7551 14.123
H 11.8061 15.7024 13.7033
C 6.42405 16.1848 15.4826
O 7.32152 16.2943 16.5905
H 7.80356 17.0854 16.4036
C 3.53114 14.1747 6.35016
O 4.56764 14.5704 7.25241
H 4.78435 13.8201 7.7845
C 25.2992 8.63007 17.6927
O 24.7223 9.50225 16.7173
H 24.5109 8.96324 15.9704
C 10.3311 13.7397 20.9576
O 10.3184 12.8172 22.0502
H 9.82166 12.0784 21.733
C 3.88023 25.6298 27.1705
O 4.94123 25.9343 26.2614
H 5.33295 26.7406 26.5604
C 1.33878 24.7994 9.42203
O 2.63512 25.3921 9.3073
H 2.49414 26.2526 8.94312
C 11.4936 12.824 2.72864
O 10.9979 14.1458 2.95641
H 10.7722 14.1102 3.87336
C 26.4585 11.832 21.5798
O 25.9168 13.1518 21.4819
H 24.978 13.122 21.586
C 10.2825 11.8362 11.744
O 9.9726 11.5994 10.3682
H 10.835 11.6199 9.9824
C 13.8628 23.4341 17.4036
O 14.0434 23.1176 16.0208
H 14.971 22.998 15.8853
C 17.8958 17.6303 10.2964
O 17.0544 17.0817 9.2786
H 17.0358 17.5664 8.46754
C 17.1942 1.51932 12.6407
O 17.9493 1.60388 13.8521
H 18.2941 2.48229 13.9027
C 7.10351 29.3914 15.0984
O 6.28219 28.2928 14.6942
H 5.45289 28.7276 14.5669
C 18.9908 26.8958 10.959
O 19.589 27.4993 9.80889
H 18.913 27.7403 9.1941
C 13.2385 9.82595 14.9863
O 12.8088 9.88337 13.6236
H 11.9454 9.49959 13.6415
C 8.05466 26.5338 22.2038
O 7.37098 26.4273 23.4552
H 7.01924 25.5592 23.5806
C 29.4846 7.67443 18.2789
O 28.9667 8.53535 17.2613
H 28.8736 8.06455 16.4472
C 9.6701 15.1499 28.7491
O 9.91329 15.9213 1.17586
H 10.2895 15.3365 1.81572
C 5.40639 18.947 17.7594
O 4.48985 17.8547 17.8675
H 4.38098 17.6901 18.7917
C 2.18404 12.3641 11.3194
O 1.85693 11.1013 10.7336
H 2.19105 11.1882 9.85392
C 0.868679 0.777541 28.8143
O 29.0997 28.3081 28.2854
H 28.2003 28.4501 28.0329
C 1.19398 28.1728 11.5835
O 1.8089 29.4363 11.8488
H 2.10029 0.96524 10.9951
C 23.1334 29.3275 3.85302
O 23.2322 1.79966 3.12143
H 22.4269 2.29419 3.11448
C 14.1712 14.0022 18.4229
O 13.4926 15.0796 17.772
H 14.1736 15.52 17.287
C 12.9672 3.56913 22.8157
O 12.6967 3.29594 21.4383
H 12.7025 4.12245 20.9802
C 28.2254 1.21101 17.4306
O 27.0672 29.2175 17.0474
H 26.6742 1.05469 16.4223
C 5.65031 23.1054 20.0071
O 5.29877 23.2383 18.6273
H 4.35441 23.2457 18.6611
C 11.2513 7.03684 5.63289
O 11.9707 7.68202 6.68698
H 11.7543 8.59526 6.5767
C 8.27676 5.07924 4.81164
O 7.43731 5.76072 5.74749
H 6.70267 5.17249 5.83299
C 15.5146 8.09645 21.8509
O 14.1901 8.03306 21.3158
H 13.6355 8.50218 21.9203
C 7.25809 6.47613 14.7815
O 7.93739 5.21779 14.7887
H 7.67802 4.69445 15.5316
C 18.3181 14.0511 9.97169
O 17.2412 13.1344 9.75996
H 17.5874 12.2565 9.70952
C 4.32106 6.54659 3.21973
O 4.68061 5.22028 2.8241
H 4.88415 4.83496 3.66263
C 27.2665 1.09818 5.9946
O 27.8216 2.37731 6.31168
H 28.7042 2.24208 6.62117
C 17.045 5.92438 4.38446
O 15.6355 5.68558 4.34713
H 15.518 4.7489 4.38996
C 2.08887 14.9707 16.7414
O 2.14485 16.1272 17.5805
H 2.92166 16.0367 18.111
C 26.3733 6.17894 0.84964
O 26.2063 6.63504 28.2572
H 26.4855 7.53752 28.2813
C 12.0267 19.8463 15.555
O 11.7634 19.0531 14.3947
H 11.1003 19.5191 13.9087
C 24.5862 6.40165 21.2783
O 23.2193 6.45558 20.8618
H 23.1109 6.09782 19.9939
C 12.2407 20.5134 4.01618
O 12.2375 20.1376 5.39592
H 13.1452 19.9636 5.5925
C 28.6362 16.0636 8.12737
O 28.6898 14.7192 7.64291
H 27.8074 14.3832 7.6813
C 15.2148 27.0528 19.8475
O 14.0962 27.2653 20.7127
H 14.0099 28.2031 20.7909
C 3.16146 21.5516 22.2353
O 2.53776 20.4528 22.9051
H 3.16937 20.1419 23.5355
C 2.93747 24.2852 5.82096
O 3.30783 23.5807 7.00902
H 3.08371 24.0886 7.77382
C 18.6749 17.4631 26.7986
O 18.8148 18.7574 27.3904
H 19.7482 18.8083 27.5291
C 6.8161 5.70359 25.1193
O 8.01999 5.17861 24.5536
H 7.78197 4.37835 24.111
C 24.4987 18.4125 25.2913
O 24.4048 17.4361 24.2508
H 24.4552 17.8331 23.3948
C 5.37366 7.45687 22.5415
O 6.20131 8.53037 22.086
H 6.38667 8.49011 21.1602
C 21.2202 17.9262 13.7215
O 22.4089 18.5666 13.2506
H 22.4241 18.4915 12.3087
C 5.95661 28.9854 28.11
O 6.14618 28.2352 26.9075
H 6.11002 28.8484 26.1893
C 8.41871 9.27633 3.89254
O 9.13898 10.4208 4.35757
H 8.59109 11.1894 4.4036
C 26.1924 10.6103 13.4575
O 26.7702 9.76309 12.4609
H 27.47 9.26123 12.8499
C 10.7011 25.0597 15.2409
O 10.1566 26.1547 14.4995
H 10.9142 26.6592 14.2456
C 9.7431 1.52435 22.5928
O 9.21961 1.24968 21.2908
H 9.72774 29.3279 20.8663
C 18.0979 7.82701 29.3316
O 18.7815 6.65812 28.872
H 18.3735 6.47746 28.0389
C 22.4237 25.6703 7.12622
O 22.1726 24.7718 6.04244
H 21.7515 24.0087 6.40775
C 9.93277 5.2237 21.4292
O 10.5439 6.50917 21.567
H 10.9349 6.73323 20.7364
C 5.4525 27.8319 9.65994
O 5.10496 28.3919 8.3909
H 4.52943 27.7506 8.00296
C 17.4142 19.9499 1.92668
O 16.1159 19.822 2.51231
H 15.6684 19.266 1.89292
C 3.08617 21.9759 1.89674
O 4.19309 21.4521 1.15833
H 4.41174 20.5503 1.33725
C 4.79027 12.1613 21.5734
O 5.72505 11.3496 20.8577
H 5.39909 10.5988 20.3854
C 29.3077 14.9901 13.2615
O 28.7401 15.8741 12.2913
H 27.8368 15.6119 12.1999
C 26.2864 10.0339 26.9146
O 27.2789 9.05568 27.2354
H 28.0494 9.59935 27.1736
C 17.481 2.12453 8.87062
O 17.5191 3.55008 8.7645
H 18.269 3.75978 8.229
C 6.76221 24.0164 10.7036
O 6.65201 23.6994 9.31354
H 6.01945 23.0094 9.18381
C 10.836 28.7073 16.6159
O 11.962 29.2522 15.923
H 12.0661 28.7501 15.1293
C 7.4429 7.29315 19.3863
O 6.39985 8.26856 19.4605
H 6.28039 8.58532 18.5782
C 25.299 24.5381 19.7621
O 25.1904 24.7665 18.3546
H 25.8666 25.3914 18.142
C 18.8071 14.5395 14.2705
O 17.5593 14.9989 13.7445
H 17.5649 15.9431 13.7065
C 21.2925 8.19527 15.5101
O 20.2778 8.71025 14.644
H 19.9627 9.4554 15.1323
C 18.3063 4.00292 16.9032
O 18.1842 5.15622 17.7398
H 18.6167 4.92698 18.5482
C 24.4053 22.8052 4.13011
O 24.3482 22.9068 5.55535
H 23.6703 23.5609 5.62979
C 1.28139 19.5238 17.6974
O 0.751015 18.264 18.1174
H 1.35038 17.5719 17.8833
C 18.2344 18.2827 6.08224
O 16.9868 17.7831 6.57073
H 16.3602 17.8135 5.86396
C 20.8891 3.91679 7.97333
O 19.6757 4.66304 7.84842
H 19.8007 5.58544 8.01146
C 16.1654 26.6701 4.79242
O 17.35 26.2254 5.45877
H 17.1415 25.401 5.87088
C 12.6065 26.096 28.5944
O 13.7981 26.7918 28.2193
H 14.4915 26.36 28.6945
C 13.1967 17.3373 21.5295
O 12.1497 17.5883 22.4706
H 12.1852 16.9627 23.178
C 19.7968 7.84117 24.04
O 19.8377 6.42216 24.2121
H 18.9636 6.16765 24.4654
C 23.6278 6.8932 26.2218
O 23.4543 7.64191 27.4277
H 23.2085 7.04598 28.1187
C 27.9485 25.322 5.19368
O 28.1119 25.2419 6.61206
H 27.7309 24.4172 6.87238
C 3.16635 16.233 10.0395
O 4.17453 16.9134 10.7915
H 3.88619 17.8114 10.7311
C 2.38709 20.5367 10.5569
O 2.36511 19.4398 11.4741
H 2.8609 19.7283 12.225
C 20.5273 4.07241 3.91684
O 21.2693 3.63575 2.77507
H 20.6303 3.55956 2.08307
C 28.3327 18.1459 25.8269
O 27.4469 17.1489 26.3427
H 27.6136 16.3283 25.9045
C 1.87468 5.73792 6.53968
O 2.9273 4.85534 6.9371
H 3.19607 5.2868 7.73373
C 21.8729 18.7123 10.1585
O 23.1555 18.4106 10.714
H 23.7504 18.5475 9.99267
C 19.4609 28.6465 25.5927
O 18.3695 0.75728 25.2635
H 17.7602 29.3943 25.9766
C 1.3309 9.4349 13.5996
O 29.208 8.40818 13.1258
H 0.71275 8.18447 12.2445
C 9.06447 22.1675 21.7971
O 9.26387 21.0513 20.9258
H 9.68349 20.3764 21.4372
C 20.0136 11.8057 3.74373
O 20.7323 12.2301 2.58253
H 20.1118 12.3565 1.88104
C 11.9988 7.78986 10.011
O 11.6038 9.06365 10.5271
H 11.9733 9.65269 9.8872
C 2.05048 21.5424 26.2601
O 29.4706 21.9256 26.6106
H 29.2621 21.6059 27.4751
C 6.36183 23.4108 2.732
O 6.1889 23.5999 1.32515
H 5.45213 23.0389 1.13691
C 20.3189 26.1843 3.8752
O 21.7334 26.047 3.71645
H 22.0215 25.707 4.54978
C 7.432 19.64 6.23949
O 7.97994 18.833 5.19377
H 7.90367 17.9008 5.32842
C 5.25835 9.1785 11.0378
O 4.04942 8.80179 10.3734
H 3.96263 9.56254 9.81957
C 23.7334 11.6093 5.93939
O 23.9717 12.9259 6.44413
H 23.2245 13.4948 6.33867
C 20.4096 11.5291 21.7123
O 21.7419 11.0652 21.9466
H 21.7618 10.1787 21.6202
C 3.91051 14.7321 28.0141
O 2.99283 14.7869 29.1095
H 3.41121 14.222 0.988484
C 14.3532 22.1799 1.49866
O 15.0659 23.0636 2.36803
H 14.7432 23.0371 3.25581
C 17.6618 21.9523 24.1112
O 16.9067 21.5672 22.9595
H 17.2624 20.8088 22.5221
C 13.6592 15.7052 4.46913
O 12.8781 15.5072 5.6505
H 13.2769 16.1434 6.22429
C 21.2135 21.3034 5.2097
O 21.3562 22.2767 6.24761
H 21.9672 21.9632 6.89676
C 23.3595 10.3393 1.6462
O 23.3642 11.5318 2.43544
H 22.4555 11.7888 2.46969
C 16.969 1.19782 2.91094
O 16.2556 2.24723 2.25164
H 15.8629 2.68916 2.98891
C 20.5652 28.7564 1.09768
O 21.1135 1.26822 29.4684
H 20.3719 1.82719 29.2933
C 9.05491 4.08735 8.59275
O 9.42771 2.82269 8.03908
H 8.63048 2.3531 7.84689
C 22.4814 27.1116 22.6037
O 22.8329 26.2836 23.7153
H 22.7409 26.7554 24.5289
C 15.022 9.32168 2.25558
O 15.7993 10.4467 2.67389
H 15.4017 11.2227 2.30951
C 10.8797 6.75367 14.0643
O 10.77 8.07668 13.5328
H 10.1532 8.10383 12.8174
C 14.1985 13.6894 13.6058
O 15.4293 13.5706 14.3241
H 16.102 14.0356 13.8506
C 27.6878 4.88474 20.2125
O 28.4028 4.07791 19.2729
H 28.8575 3.47093 19.8367
C 14.0374 11.0526 8.91427
O 12.6143 11.0456 8.77381
H 12.338 11.3361 7.91806
C 4.52203 18.1903 3.20929
O 5.17023 18.9946 2.22044
H 5.92136 18.5011 1.92845
C 1.32092 11.7708 27.3381
O 1.00495 10.3978 27.093
H 1.76782 10.1732 26.5825
C 10.1685 20.9295 11.7501
O 9.76145 20.3549 12.9947
H 8.88873 20.698 13.1116
C 8.3454 7.72533 10.4835
O 8.99703 8.55173 11.4516
H 9.716 8.95347 10.9883
C 28.5688 15.3622 28.8182
O 28.8743 16.2621 1.13427
H 0.64312 16.8919 29.4128
C 25.12 2.34198 20.8376
O 24.4594 1.42176 21.7104
H 23.5538 1.687 21.7598
C 27.6096 27.0951 14.3291
O 28.8279 27.7485 14.6949
H 28.57 28.6309 14.9137
C 15.9886 6.50225 8.99105
O 15.4531 5.18068 9.09861
H 16.1905 4.59872 9.20171
C 1.6923 10.7019 3.96329
O 0.705622 11.7354 4.02148
H 1.10751 12.4541 3.55783
C 12.2296 29.3106 2.07205
O 11.1684 1.02211 2.91078
H 10.3411 1.03069 2.45425
C 12.9979 10.586 18.9751
O 13.355 9.20129 18.9709
H 13.862 9.01796 19.7471
C 4.43025 25.5588 12.7466
O 4.29522 26.5323 13.7853
H 5.17083 26.8639 13.9134
C 21.0245 25.7383 15.2338
O 22.2156 25.6884 14.4441
H 22.7138 25.1008 14.9915
C 5.87716 22.8966 24.9279
O 5.97711 24.2529 24.486
H 5.66925 24.9284 25.0707
C 26.3257 13.2655 2.48532
O 25.9441 12.0631 3.15872
H 25.0706 11.7736 2.94377
C 7.06953 15.0765 11.2122
O 5.70858 14.6401 11.2591
H 5.18985 15.4164 11.1134
C 15.9708 20.3495 11.3355
O 15.4435 21.556 10.7775
H 14.7249 21.7947 11.3428
C 11.1722 24.2483 19.7185
O 11.241 25.3637 20.6107
H 11.8052 25.1647 21.3422
C 11.4981 24.8985 24.5526
O 12.1588 23.7363 24.0451
H 12.5738 23.9309 23.2187
C 21.6538 15.5588 7.05138
O 21.8366 14.4862 6.12354
H 21.252 14.6774 5.4061
C 7.87045 10.3949 8.08666
O 7.69118 11.4639 9.0194
H 8.4524 11.5312 9.57532
C 2.48055 1.81202 19.9247
O 1.37539 2.13012 20.7746
H 1.28699 1.45695 21.4319
C 5.95378 17.0382 26.107
O 6.63494 17.8246 27.0881
H 6.95584 18.6215 26.6942
C 20.2277 17.8398 3.13685
O 21.4492 17.5214 3.80887
H 21.2568 16.6022 3.91412
C 21.6222 2.86992 11.3407
O 21.8129 3.58825 12.5624
H 22.5519 4.14354 12.366
C 24.1205 3.08785 28.5794
O 23.6608 1.7416 28.7251
H 22.7777 1.72808 29.0612
C 20.0383 22.2455 15.8753
O 20.5384 22.3504 14.5397
H 19.9902 23.0223 14.1642
C 5.72131 10.4106 24.9802
O 6.62963 11.4639 25.3124
H 7.44508 11.002 25.4338
C 23.156 14.6151 3.26435
O 21.7419 14.8263 3.24007
H 21.3957 14.081 2.77346
C 13.3929 3.36948 11.3441
O 12.2525 3.76386 10.5768
H 12.6299 4.52174 10.157
C 18.6871 6.99884 12.0511
O 18.6823 6.89918 13.4776
H 19.1815 7.57988 13.9025
C 20.89 22.0972 26.1613
O 22.1355 22.1654 25.4621
H 22.2068 21.5282 24.7678
C 1.28316 28.8237 23.7916
O 1.07789 28.8478 22.3766
H 28.897 28.8085 22.2343
C 27.6069 7.99709 6.2019
O 28.5549 8.85084 6.84789
H 28.2987 9.72825 6.60792
C 22.0975 4.08735 17.9909
O 22.9117 5.23148 18.2609
H 23.7809 4.93432 18.039
C 8.43484 20.4775 2.21504
O 9.26279 19.5763 2.95479
H 8.70652 19.3027 3.66805
C 24.4905 10.099 23.804
O 23.2455 10.6702 24.2146
H 22.7712 11.0535 23.4927
C 17.9086 25.3084 24.8783
O 18.4398 24.9449 26.1552
H 17.7809 24.4228 26.5869
C 8.93641 10.5541 14.783
O 7.90243 10.2082 13.8578
H 8.26501 9.62816 13.2057
C 0.891057 3.83668 11.2803
O 0.772743 4.70687 10.1517
H 1.25955 5.47672 10.4034
C 18.6783 23.4746 11.8581
O 19.0505 24.0567 13.1102
H 18.3067 24.5505 13.4201
C 28.6015 25.2365 26.2135
O 29.1347 24.3717 25.2072
H 29.217 23.5458 25.659
C 18.0096 11.7631 24.7359
O 18.2502 12.603 25.868
H 18.5722 11.9962 26.5169
C 11.5071 9.04177 1.29239
O 11.5489 9.94822 28.9397
H 11.171 9.55534 28.1678
C 10.8614 7.47932 17.4624
O 10.9227 7.94319 18.8137
H 11.7704 8.35965 18.783
C 18.0013 23.2697 7.04807
O 16.8754 24.1425 6.92378
H 16.2873 23.9351 7.63385
C 19.4812 22.7606 1.30078
O 20.1434 21.617 0.754262
H 19.4333 21.2128 29.032
C 9.57882 1.50652 26.2211
O 9.7516 1.88188 27.5901
H 10.4721 2.4913 27.5398
C 4.77821 4.25186 18.2067
O 5.54694 3.06448 18.4167
H 4.96888 2.31701 18.429
1500
 Atoms. Timestep: 40000
O 6.86689 17.2648 23.1463
H 6.94713 16.2794 22.9962
H 7.68344 17.5977 23.6179
O 17.2714 11.0737 20.644
H 16.5423 10.7263 21.2337
H 16.9389 11.1336 19.7028
O 13.2178 21.9589 27.8309
H 12.657 22.6688 28.2572
H 13.8641 21.5966 28.5024
O 6.18096 8.68985 7.06201
H 5.94241 9.631 7.30145
H 6.32277 8.62291 6.07439
O 18.0924 21.6112 21.6634
H 19.0223 21.5483 22.0258
H 18.0697 22.2767 20.9174
O 18.7478 25.5823 18.7453
H 18.3998 26.4541 19.09
H 19.7474 25.6063 18.7269
O 10.0462 13.8751 16.6858
H 9.14281 13.7803 17.1041
H 10.2128 13.1023 16.0735
O 24.044 11.6843 21.4118
H 23.4236 10.9012 21.3672
H 24.909 11.4499 20.9682
O 2.67893 19.1743 12.0534
H 2.55621 18.3189 12.5567
H 3.61287 19.2215 11.6991
O 11.8357 2.45139 21.0003
H 12.5965 3.04058 20.7283
H 11.0109 3.00466 21.1172
O 6.52389 17.1364 12.4589
H 7.13924 17.5111 13.1523
H 6.04217 17.884 12.0017
O 27.095 19.7866 5.36987
H 27.8883 20.3915 5.43838
H 26.3291 20.2858 4.96473
O 15.5912 28.8172 9.13451
H 15.0269 28.0894 9.5242
H 15.1887 0.953084 9.35551
O 22.7511 2.62336 24.754
H 22.2185 2.46553 23.9225
H 22.1434 2.93277 25.4854
O 10.7091 9.73473 22.1482
H 10.8014 10.6629 22.5087
H 10.5547 9.77435 21.161
O 15.7786 19.0142 8.87172
H 16.44 18.9521 9.61918
H 15.1652 19.7874 9.03278
O 11.85 11.7708 28.7782
H 12.7128 12.2514 28.6214
H 11.2265 11.9485 28.0168
O 14.0255 24.5391 18.9022
H 13.4212 25.0103 18.2598
H 13.5034 23.8532 19.4092
O 4.12342 2.654 7.45156
H 4.462 3.54488 7.75436
H 4.87394 2.13265 7.04547
O 25.9116 19.3639 8.06825
H 26.3497 19.3911 7.1697
H 26.5348 18.9477 8.73036
O 9.192 9.40816 17.0913
H 9.79205 8.72074 16.6822
H 8.23805 9.13829 16.9603
O 26.7304 23.5917 6.54724
H 25.871 23.6033 6.03612
H 26.5856 23.1503 7.43278
O 12.436 14.0118 23.3675
H 11.4947 13.8139 23.641
H 12.7159 14.8925 23.7497
O 25.0599 1.90995 11.5694
H 24.389 1.16861 11.5558
H 24.8353 2.57601 10.8582
O 26.4626 29.222 26.5466
H 25.5383 29.0097 26.2292
H 26.6481 28.7209 27.3918
O 29.0813 21.9939 5.76149
H 0.961411 21.8381 6.52009
H 28.2705 22.4738 6.0968
O 3.6342 5.78438 0.952785
H 3.84822 5.26544 1.78037
H 3.84765 5.23088 28.9003
O 6.68492 4.69557 11.7811
H 6.45266 5.64703 11.5792
H 5.91809 4.25765 12.2504
O 6.4053 22.5249 9.95928
H 6.06664 21.842 9.31197
H 5.78194 23.3066 9.97564
O 7.83191 19.9612 16.5946
H 8.085 19.2972 17.2982
H 7.99388 20.887 16.9361
O 2.75137 9.69333 19.4142
H 2.77667 8.86801 18.8501
H 2.13438 9.54946 20.1879
O 1.1951 24.9572 20.6681
H 1.36168 25.1824 19.7081
H 2.00917 25.1732 21.2072
O 19.0732 17.0811 19.5441
H 18.8106 17.1073 20.5086
H 20.0404 16.8385 19.4684
O 9.92354 7.10146 22.6978
H 9.33845 7.02163 21.8908
H 10.4161 7.97123 22.6677
O 23.1077 20.0089 2.42918
H 22.4708 20.5025 1.83699
H 22.6002 19.3631 2.99959
O 17.2616 11.9742 1.15156
H 17.6435 11.3769 1.85685
H 17.8808 12.7437 0.995299
O 14.3535 3.25429 27.1455
H 13.5887 3.3853 26.5148
H 14.073 3.51689 28.0688
O 25.7785 9.52773 7.34773
H 25.4325 10.0833 6.59165
H 26.5744 9.00578 7.04083
O 13.7533 4.22361 1.0417
H 13.339 3.67098 1.76484
H 13.1129 4.93803 0.759801
O 5.92016 12.9804 10.1857
H 6.66898 13.421 9.69056
H 6.1648 12.8932 11.1513
O 3.03441 12.2647 20.0308
H 2.92985 11.2749 19.9332
H 2.75022 12.7149 19.1843
O 17.0624 3.74947 27.1775
H 17.04 3.93303 28.1602
H 16.1387 3.5403 26.8564
O 21.8395 6.20547 23.7307
H 21.681 5.977 22.7702
H 22.089 5.3778 24.2334
O 23.5874 26.0073 1.44576
H 23.0244 26.0204 0.619356
H 24.2202 25.2341 1.40571
O 3.8901 1.63504 4.20253
H 3.7726 0.769153 3.71627
H 3.03384 1.88113 4.65669
O 26.9376 2.599 1.6602
H 26.1199 3.09677 1.37104
H 26.6675 1.77823 2.1636
O 13.8563 20.658 9.85903
H 14.0313 21.4649 9.29493
H 12.9832 20.2489 9.59378
O 25.7988 9.04783 14.852
H 25.5571 9.42201 13.9567
H 25.723 8.051 14.8281
O 5.34004 19.3439 11.1687
H 5.95494 19.8292 11.7903
H 5.51323 19.6406 10.2295
O 1.20105 4.6063 27.3668
H 29.0904 4.10206 27.393
H 1.27395 5.18485 28.1791
O 15.2782 21.9927 17.59
H 15.3423 21.3471 18.351
H 14.4193 21.8454 17.0995
O 4.8607 8.35637 1.62172
H 4.92838 8.78105 0.71891
H 4.58961 7.39918 1.52033
O 24.0687 20.0163 18.467
H 24.7519 19.6455 19.0961
H 24.4552 20.0646 17.546
O 22.2296 9.65908 21.3516
H 21.9402 9.6192 22.308
H 21.4247 9.73022 20.7625
O 13.2182 16.3319 24.4061
H 12.7517 16.5942 25.2508
H 14.2074 16.398 24.5374
O 25.9777 27.8913 15.836
H 25.7722 26.9412 16.0707
H 26.221 27.9502 14.8678
O 11.7669 19.8642 26.9813
H 12.4837 20.5588 27.0417
H 11.3604 19.7253 27.8844
O 2.25295 6.89996 17.3954
H 2.29311 5.9577 17.7279
H 1.3886 7.04719 16.9145
O 16.1881 10.1051 6.10002
H 16.0732 9.34317 6.73745
H 15.369 10.1915 5.53282
O 5.44995 11.2145 8.03457
H 5.59904 11.8317 8.80713
H 5.02076 11.7173 7.28425
O 10.3606 20.5341 24.7314
H 10.5972 21.4644 24.4511
H 10.9023 20.2794 25.5324
O 8.32212 7.19902 20.4388
H 7.3378 7.02283 20.4301
H 8.73133 6.84593 19.5974
O 18.3256 1.81053 25.3379
H 18.1343 2.40521 26.1187
H 17.8829 0.924727 25.4772
O 5.31665 29.0517 6.48403
H 6.07645 28.7045 5.93438
H 4.54283 29.2634 5.88703
O 13.619 6.50238 7.82354
H 13.7181 6.01069 6.95843
H 14.4666 6.99224 8.02748
O 19.2288 7.36622 13.8299
H 18.8502 8.08575 14.412
H 20.2276 7.40413 13.86
O 25.714 18.1331 19.9923
H 25.5943 17.2124 19.6208
H 26.6871 18.3083 20.142
O 10.2498 16.6887 15.9399
H 10.0507 15.72 16.088
H 11.2308 16.8077 15.7865
O 1.01728 17.4706 1.53603
H 1.26137 16.9834 2.3745
H 29.0491 18.1349 1.73433
O 27.9287 2.8358 27.48
H 27.8154 1.95498 27.0203
H 27.3343 2.87136 28.2834
O 2.00929 14.5417 7.54295
H 1.51203 15.3493 7.86002
H 1.36576 13.7906 7.3956
O 7.69736 14.0038 6.15965
H 6.72037 13.7913 6.14039
H 8.03015 13.9569 7.10148
O 2.28949 18.4261 9.5381
H 2.15949 18.7455 10.4767
H 1.5135 17.8552 9.26981
O 3.1326 18.3547 28.4361
H 2.39822 18.3213 29.114
H 3.77712 17.6092 28.6059
O 24.1767 16.6031 26.061
H 23.2284 16.7961 25.8088
H 24.5014 17.3028 26.6974
O 12.7158 20.7921 5.5384
H 12.821 20.1131 4.81188
H 13.1364 21.6533 5.25319
O 17.6 9.7735 26.6978
H 18.2224 9.73756 25.916
H 18.1259 9.70779 27.5458
O 19.2219 26.6811 10.3049
H 19.7603 25.8419 10.2277
H 18.6943 26.6618 11.1541
O 6.29921 8.00327 4.53793
H 5.69486 7.76491 3.7777
H 6.82376 7.19725 4.8121
O 23.6831 16.6541 14.6721
H 23.9426 17.1431 13.8393
H 24.218 17.0008 15.4426
O 13.0005 18.8674 17.4487
H 12.3784 18.4654 18.1204
H 12.8783 18.4121 16.5668
O 29.2593 5.83366 10.9682
H 28.9613 4.99852 10.5059
H 29.1816 6.60808 10.3403
O 16.4332 7.07545 2.02765
H 15.5855 7.52206 1.74158
H 16.4811 6.16163 1.62437
O 25.4384 25.2456 16.3292
H 25.8148 25.1321 17.2486
H 24.5333 24.8227 16.285
O 18.9551 18.9146 24.4955
H 18.0971 19.396 24.6746
H 19.7253 19.5141 24.713
O 1.71885 26.5823 8.2149
H 1.60464 26.2105 7.29363
H 1.00495 27.2598 8.39179
O 8.05116 9.36796 22.7832
H 9.03784 9.52989 22.7681
H 7.78822 8.83666 21.9779
O 0.79511 5.99494 1.0871
H 1.75068 6.28947 1.09885
H 0.717142 5.09879 1.52393
O 19.8395 10.3212 19.9377
H 18.9734 10.607 20.3478
H 19.9278 10.7275 19.0283
O 11.1278 19.1853 0.703051
H 11.4417 18.2397 29.3694
H 10.1523 19.1939 0.922802
O 25.3185 4.20938 28.8636
H 24.8494 4.10599 27.9865
H 25.6849 5.13684 28.9383
O 25.3173 13.4959 10.1372
H 24.5659 14.1556 10.1531
H 25.6333 13.3732 9.19646
O 21.3482 17.7717 22.4082
H 20.4472 17.3903 22.2017
H 21.6039 18.4266 21.6971
O 29.1006 15.9618 19.9627
H 0.8993 16.511 19.3345
H 28.5905 16.5665 20.5744
O 6.70579 12.853 2.63137
H 6.59972 12.9226 1.63945
H 7.47346 13.4224 2.92528
O 26.3206 11.642 19.8652
H 26.1973 11.8143 18.8879
H 26.845 12.3901 20.272
O 26.1825 23.3702 23.386
H 26.8633 23.7185 22.7416
H 26.072 22.3851 23.2541
O 27.6211 25.7598 0.779233
H 26.8341 25.145 0.727202
H 28.465 25.2246 0.742068
O 9.50909 18.1117 23.7034
H 9.70939 19.0819 23.8396
H 10.2055 17.7076 23.1102
O 1.63939 20.5265 20.0088
H 1.58248 20.9736 20.9014
H 2.5968 20.3359 19.7918
O 11.6593 4.19904 8.09799
H 12.4045 4.83355 7.89268
H 11.3954 4.29428 9.0578
O 14.1124 23.5367 23.12
H 14.6717 22.7281 22.9373
H 14.3994 24.2831 22.5195
O 13.4804 14.5331 8.45792
H 14.2154 13.8717 8.60765
H 13.8362 15.3175 7.9498
O 28.7756 14.8749 4.20168
H 28.7055 14.1597 4.89711
H 27.9764 14.8361 3.60189
O 1.24703 2.75763 7.63179
H 2.06036 2.71506 8.21203
H 1.52375 2.7797 6.67109
O 23.6674 15.6744 9.98412
H 23.8998 16.6315 9.8105
H 23.4071 15.5634 10.9432
O 14.915 25.3911 25.3873
H 15.0635 25.2936 26.3714
H 14.883 24.4858 24.9638
O 27.399 28.2905 29.0754
H 27.2406 27.3176 29.2441
H 27.0826 28.821 1.10931
O 4.07666 2.0165 17.1585
H 4.07839 1.44922 17.982
H 3.95101 1.43589 16.354
O 5.99235 9.14458 27.7416
H 6.04397 8.93049 26.7661
H 6.90749 9.35479 28.0856
O 26.5576 6.33931 15.0007
H 27.3663 6.91276 15.1316
H 26.827 5.37631 15.0088
O 12.7103 2.44082 2.69204
H 12.2259 2.12023 1.87807
H 12.1734 2.22261 3.50699
O 15.2994 13.7331 1.86824
H 15.3317 13.9318 2.84777
H 15.9055 12.9644 1.66392
O 21.2812 2.77844 22.3245
H 20.4221 3.17437 22.6489
H 21.754 3.43968 21.7421
O 25.6388 17.515 16.8106
H 26.4425 17.9842 17.1765
H 25.3047 16.8533 17.4819
O 17.6798 22.8936 15.9262
H 16.9607 22.8535 16.6199
H 18.4862 22.4007 16.2532
O 26.2749 13.1925 7.41055
H 26.0808 13.9577 6.79671
H 25.9349 12.3445 7.00398
O 16.5759 4.10685 1.11706
H 15.5846 4.15413 1.23975
H 17.0064 3.84343 1.98034
O 12.1662 22.8901 25.1593
H 12.844 22.9693 24.4283
H 12.626 22.6587 26.0166
O 8.07579 2.4269 12.6344
H 7.71659 3.17564 12.0773
H 7.77048 1.5533 12.2555
O 28.7756 24.8723 17.8155
H 28.9321 25.2863 16.9188
H 0.712875 24.1679 17.9824
O 6.49412 19.3727 21.3129
H 6.94134 18.8257 20.6052
H 6.63276 18.9417 22.2045
O 6.8861 10.4909 4.60251
H 6.58184 9.57692 4.33397
H 6.61668 11.1512 3.90154
O 11.2296 9.05312 28.7862
H 11.6505 9.93697 28.9903
H 10.2661 9.18822 28.5549
O 24.1219 5.40417 16.1466
H 24.2178 4.48965 15.7536
H 24.8043 6.01365 15.743
O 16.7895 11.8974 25.1466
H 16.1166 11.5971 24.4705
H 16.9412 11.1672 25.8128
O 13.1369 6.42172 26.3439
H 14.0035 6.89909 26.199
H 13.044 6.18575 27.3112
O 13.9001 2.51308 9.07268
H 13.0702 3.06929 9.02881
H 14.6757 3.09108 9.32631
O 28.579 8.16566 9.13711
H 27.7174 7.66317 9.20892
H 28.8573 8.21479 8.17786
O 21.4708 24.3159 10.2545
H 22.1789 24.9273 9.90116
H 21.3201 23.5702 9.60543
O 23.1474 24.1663 25.2458
H 23.653 25.008 25.4354
H 23.056 24.0479 24.2571
O 8.06927 17.9115 14.7169
H 8.89362 17.4742 15.0764
H 7.8158 18.6795 15.3051
O 23.2668 23.772 22.6356
H 24.1449 23.3922 22.9267
H 23.3252 24.0497 21.6767
O 8.68543 23.824 9.68698
H 7.84193 23.2941 9.77457
H 9.23474 23.7156 10.5155
O 8.64738 14.6676 3.59461
H 8.39629 14.5788 4.55848
H 9.53416 14.2322 3.43966
O 9.09703 11.4757 5.59291
H 8.3509 10.8956 5.26616
H 8.84868 12.4369 5.47343
O 3.26978 19.0113 7.22935
H 2.96724 18.6961 8.12889
H 3.01028 18.339 6.53602
O 16.7909 28.8943 11.7659
H 16.7299 29.075 10.7842
H 17.2842 28.0377 11.9171
O 23.543 23.3115 27.8512
H 22.7785 22.8716 28.3225
H 23.2019 23.8043 27.0507
O 25.6133 14.4478 25.1479
H 26.2496 14.5958 25.905
H 24.8758 15.1215 25.1958
O 23.8159 28.5994 25.8509
H 23.5649 28.7486 26.8074
H 23.1856 29.1013 25.2587
O 7.28828 6.47714 8.2129
H 7.9314 5.92379 7.68358
H 7.15586 7.35882 7.76001
O 2.346 16.0859 3.51443
H 1.53748 15.688 3.94799
H 2.94005 16.4804 4.21549
O 1.66589 27.0171 18.4044
H 1.20829 27.6525 19.0264
H 0.987112 26.4145 17.9847
O 26.0854 24.2792 12.7888
H 26.2763 25.1532 13.2357
H 25.1502 24.2832 12.4347
O 14.9906 5.41968 18.9123
H 15.3939 4.53487 18.6789
H 15.6705 6.14106 18.7803
O 27.003 21.5517 1.88231
H 27.2882 20.5933 1.89653
H 27.6151 22.0728 1.28748
O 9.90876 13.9165 24.9428
H 9.44008 13.8357 24.0632
H 9.52187 14.6817 25.4576
O 28.7379 18.6423 20.8674
H 28.5185 19.06 21.7492
H 29.3485 19.2463 20.3553
O 22.0326 8.85024 24.19
H 22.8111 9.03746 24.7891
H 21.8918 7.86231 24.1253
O 16.3367 12.7091 6.79368
H 16.1468 11.8304 6.35556
H 16.3802 12.5847 7.78497
O 11.6162 14.8622 18.8029
H 11.0624 14.318 18.1727
H 11.9545 14.277 19.5399
O 6.38311 7.22943 10.5121
H 6.69592 7.00123 9.59011
H 5.79955 8.04064 10.4749
O 8.72303 26.4111 6.11405
H 8.10533 25.6341 5.99277
H 8.98027 26.4852 7.07756
O 11.308 28.5451 6.77664
H 11.3589 27.7034 7.31429
H 10.9384 28.3398 5.8704
O 13.9431 22.7591 8.26115
H 14.4054 22.6081 7.38741
H 12.9686 22.9154 8.09998
O 27.8223 18.8224 17.6736
H 28.7265 18.4988 17.9522
H 27.7713 19.8138 17.7943
O 25.3166 18.2529 1.51625
H 24.6849 18.6534 2.17994
H 25.025 18.4943 29.3432
O 11.9059 25.9317 8.49588
H 10.9617 26.1935 8.69571
H 11.9793 24.9345 8.48125
O 24.0465 0.978429 16.1859
H 24.1606 1.81634 15.6522
H 24.6486 29.0199 15.8229
O 8.20197 13.723 8.77634
H 8.50238 12.7693 8.76618
H 8.89938 14.2875 9.21795
O 20.1848 5.40724 3.71453
H 19.4831 4.70222 3.81721
H 19.8294 6.15137 3.14889
O 18.2231 15.7885 16.9343
H 18.2689 16.148 17.8663
H 17.4901 16.2502 16.4346
O 11.668 17.3002 26.519
H 10.7214 17.1339 26.243
H 11.7934 18.2737 26.7101
O 14.1643 9.98095 4.54797
H 14.2588 9.56988 3.64128
H 13.2339 10.3297 4.66049
O 10.6884 22.7324 8.13849
H 10.0011 23.2753 8.62108
H 10.3784 22.5565 7.20417
O 18.0491 10.6541 3.24656
H 18.5343 9.78565 3.14503
H 17.383 10.579 3.98868
O 24.7678 2.94449 14.5001
H 24.6666 2.36536 13.6911
H 25.7268 2.95713 14.7832
O 9.72325 19.776 20.0121
H 10.6052 19.335 19.846
H 9.86565 20.6246 20.5217
O 6.45994 14.377 23.0597
H 6.48348 13.4677 22.644
H 5.52781 14.5834 23.3572
O 6.86442 13.0691 17.2397
H 6.92465 12.465 16.4452
H 6.16781 13.7675 17.0754
O 16.7932 7.42391 19.4954
H 16.4536 8.3564 19.6184
H 17.7017 7.34326 19.9055
O 23.9003 28.1165 11.7675
H 24.0511 27.3886 11.0987
H 23.5201 27.7254 12.6057
O 27.2113 3.86104 16.0644
H 28.0706 3.36207 15.9519
H 27.24 4.38689 16.9145
O 5.65903 12.109 20.0736
H 4.6903 12.3517 20.1251
H 6.04962 12.4738 19.2284
O 18.0999 25.6387 15.7037
H 17.7722 24.7087 15.5372
H 18.6288 25.6589 16.5521
O 21.3199 26.6171 18.4151
H 21.7788 27.4988 18.3057
H 21.8237 26.0586 19.0741
O 5.98118 29.2856 14.9229
H 5.0771 0.927248 14.7577
H 6.66249 1.26434 14.9565
O 4.92765 16.3303 0.73388
H 4.70194 15.3634 0.853428
H 5.52743 16.6269 1.47704
O 15.6908 21.4211 22.6818
H 15.7056 20.6846 23.358
H 16.6283 21.6587 22.4272
O 12.7738 26.2686 17.1415
H 13.4357 26.5416 16.4434
H 12.3761 27.0845 17.561
O 9.56954 22.8103 5.62819
H 9.54838 21.907 5.1997
H 9.38837 23.5109 4.93804
O 6.68338 11.8449 22.4258
H 7.12392 10.9489 22.4825
H 6.20968 11.9284 21.5491
O 4.30242 20.4272 19.7314
H 5.00195 20.2994 20.4345
H 4.63546 20.0662 18.8603
O 3.98415 28.669 18.8151
H 4.38757 28.1605 19.5758
H 3.16995 28.1893 18.4881
O 1.71419 27.9563 0.651552
H 1.86186 27.7012 28.4485
H 0.734125 27.9516 0.850168
O 27.9041 2.24358 11.8856
H 28.1789 2.70529 11.0422
H 26.9062 2.196 11.9296
O 26.3024 22.2505 9.07632
H 26.3272 21.2681 8.89125
H 26.9057 22.4601 9.84578
O 22.9741 28.3311 2.38111
H 23.2363 27.4816 1.92321
H 22.0013 28.2997 2.61039
O 23.6454 12.4115 24.2358
H 23.8111 12.3755 23.2503
H 24.255 13.0862 24.6519
O 11.5769 17.5619 19.2791
H 11.6589 16.7658 18.6795
H 11.3449 17.2602 20.2039
O 25.4775 23.741 0.976567
H 25.7142 22.8115 1.25931
H 24.9169 23.7051 28.9018
O 21.3739 19.494 26.4968
H 21.4222 20.444 26.1882
H 21.8512 18.9066 25.8433
O 24.8918 20.1594 15.8963
H 25.257 19.2354 15.7828
H 25.4806 20.8115 15.4187
O 12.3447 22.5392 20.12
H 11.6951 22.3232 19.391
H 13.1385 21.9351 20.0489
O 14.3339 20.6542 12.7767
H 14.3567 20.7299 11.7798
H 14.7103 21.4868 13.1829
O 7.79817 28.2601 12.3556
H 8.64259 27.8471 12.0145
H 7.7706 28.1873 13.3526
O 25.3049 15.5569 18.7131
H 25.1282 15.1364 19.603
H 25.5278 14.8454 18.0467
O 18.0104 27.684 8.07764
H 18.5007 27.4601 8.9199
H 17.102 28.0353 8.30419
O 0.843758 21.9265 22.6148
H 29.4453 21.3093 23.3869
H 28.7191 22.148 22.1887
O 17.1973 23.242 19.3327
H 17.5548 24.1413 19.0807
H 16.4077 23.0245 18.759
O 15.5271 9.78619 22.4947
H 14.7721 10.2027 23.0011
H 15.5983 8.81889 22.7381
O 8.50462 17.5264 3.33025
H 8.89109 17.6561 4.24338
H 8.52509 16.5547 3.09462
O 9.74318 20.8141 4.02204
H 10.6214 20.3448 4.11418
H 9.3635 20.6356 3.1143
O 28.0083 3.61588 9.31986
H 28.624 3.23371 8.63076
H 27.2579 4.09672 8.86639
O 10.8894 5.86889 24.8454
H 10.5755 6.21223 23.9602
H 11.593 6.47926 25.2092
O 6.56402 25.4924 23.7856
H 5.79269 25.5174 23.1496
H 7.25573 24.8552 23.4457
O 17.3555 24.0335 11.7241
H 16.5764 23.8105 12.3099
H 17.9779 23.2517 11.6853
O 17.5928 18.8298 18.0356
H 18.239 18.2968 18.5817
H 16.66 18.6352 18.339
O 16.6757 15.7674 13.7671
H 16.8629 16.6118 14.269
H 15.992 15.9449 13.0593
O 14.1538 17.0667 7.56537
H 13.4958 17.7982 7.3863
H 15.0311 17.4656 7.83209
O 23.7956 18.9747 27.6223
H 22.8101 19.0373 27.4649
H 24.2151 19.8695 27.4697
O 0.707477 28.2355 15.8178
H 1.37806 27.5298 15.589
H 28.5673 27.8107 15.9685
O 16.2569 28.4743 5.71707
H 17.1363 28.3984 6.18706
H 15.5327 28.6317 6.38842
O 24.2979 22.794 18.5814
H 24.0255 21.8487 18.7609
H 24.1505 23.0057 17.6153
O 14.5649 24.8924 28.1529
H 13.6311 24.6353 28.4018
H 15.1113 25.0073 28.9826
O 9.17118 4.79549 10.7084
H 8.86854 4.73065 9.75754
H 8.37349 4.82716 11.3107
O 24.9186 21.2561 3.69102
H 24.2687 20.6885 3.18562
H 25.5675 21.6692 3.05208
O 23.3444 24.8947 19.7144
H 23.7918 24.0183 19.5366
H 24.0302 25.6224 19.7281
O 18.6733 14.0531 19.4606
H 18.032 13.2889 19.5294
H 18.6537 14.422 18.5313
O 29.2773 2.1617 16.6978
H 0.91194 2.47542 15.8309
H 0.6535 1.17362 16.7823
O 18.7916 13.709 15.2309
H 18.6167 14.3462 15.9814
H 18.6619 14.1788 14.3577
O 14.7255 21.0992 20.0012
H 14.9058 20.1194 20.088
H 15.3174 21.604 20.6297
O 23.0761 28.8798 28.3708
H 22.3972 0.850658 28.2455
H 23.4085 28.8943 29.3138
O 8.95622 26.5665 8.8376
H 8.86737 25.6564 9.24236
H 8.77015 27.2603 9.5333
O 18.6877 17.1121 22.2731
H 18.6995 17.7253 23.0629
H 18.1551 16.295 22.4935
O 3.84051 14.0654 1.86973
H 4.54159 13.6694 2.46271
H 3.21201 14.6164 2.41872
O 23.1121 15.2792 7.2742
H 22.2062 14.8738 7.39699
H 23.5071 15.4897 8.16845
O 15.734 16.7862 25.0864
H 16.4454 16.3409 24.5427
H 15.9742 16.7348 26.0558
O 26.6617 21.8932 14.4812
H 27.5996 21.9068 14.8278
H 26.5181 22.6774 13.8775
O 3.216 29.2054 14.6979
H 2.29434 29.5466 14.8828
H 3.22886 28.7439 13.8109
O 28.6443 14.0751 17.8
H 28.6645 14.65 18.618
H 27.6982 13.8297 17.5884
O 27.8192 19.0291 2.45032
H 27.0646 18.5514 2.0005
H 27.5674 19.234 3.39614
O 2.30718 4.10035 17.9228
H 1.37002 3.7634 17.8323
H 2.94797 3.34699 17.775
O 12.3209 18.8606 7.51106
H 11.5783 19.2103 8.08228
H 12.6466 19.5871 6.90602
O 26.7834 28.5572 13.0895
H 25.9354 28.5149 12.5612
H 27.3749 29.2707 12.7138
O 20.4463 22.2103 8.92162
H 21.0323 22.2931 8.11551
H 19.701 21.5724 8.72785
O 19.7211 20.511 28.7761
H 20.2892 20.0589 28.0885
H 18.7825 20.5823 28.4385
O 4.8616 3.1657 12.9323
H 4.18031 3.18938 13.6639
H 4.97579 2.22478 12.6135
O 17.9209 26.4481 12.9442
H 17.9125 26.2556 13.9255
H 17.6445 25.6291 12.4414
O 19.1927 13.1885 27.3204
H 18.3831 13.3464 26.7551
H 19.9709 12.9656 26.7332
O 15.1044 2.59578 4.4139
H 14.2942 2.51515 3.83331
H 15.0403 1.94233 5.16815
O 21.1482 12.252 25.5475
H 21.9941 12.4672 25.0595
H 20.8614 11.3207 25.3227
O 20.908 22.0602 21.8837
H 21.1555 22.9611 21.5272
H 21.5123 21.3681 21.4891
O 4.53161 27.1066 8.46971
H 4.75658 27.7776 7.76321
H 3.55863 26.8815 8.41795
O 15.5664 26.7783 15.5704
H 16.4044 26.3425 15.8986
H 15.8013 27.566 15.0009
O 27.8797 16.1639 10.7568
H 28.4545 16.3558 11.5523
H 27.5694 15.2139 10.7912
O 14.6134 16.3116 1.1544
H 14.8712 15.3777 1.40223
H 13.6168 16.382 1.11185
O 10.9845 2.4053 5.94622
H 10.7106 1.53643 6.35856
H 11.4238 2.97865 6.63784
O 13.7803 0.90253 6.7335
H 12.8522 29.2976 6.62963
H 13.8757 1.32551 7.6346
C 22.4413 18.8516 9.32057
O 23.6785 18.2302 9.67864
H 24.355 18.5817 9.12022
C 9.63569 20.2368 9.96349
O 10.9652 20.3234 9.4441
H 11.0116 21.1691 9.0251
C 10.6332 26.6383 2.93866
O 10.828 27.1404 4.26338
H 10.1141 26.7735 4.76221
C 8.90291 5.63547 3.84633
O 8.15128 6.10287 4.96949
H 8.34771 5.49726 5.66783
C 3.21737 26.7346 22.9589
O 4.13189 25.7446 22.4809
H 3.68515 24.9266 22.6365
C 24.9988 25.5764 8.80694
O 23.9634 26.0989 9.6435
H 23.4956 26.78 9.18485
C 27.307 22.467 19.9239
O 27.7043 23.2334 21.064
H 28.2917 23.8729 20.6911
C 22.5893 0.84069 19.3965
O 22.4432 28.9414 18.1321
H 23.2042 29.1261 17.6032
C 8.43048 1.83204 26.3818
O 7.02306 1.57984 26.3605
H 6.67576 1.47751 25.4876
C 9.17991 1.95838 2.32193
O 8.83697 0.938071 1.38052
H 7.94074 1.09494 1.12521
C 28.4671 19.7132 10.7707
O 27.5852 18.8248 10.0794
H 27.5948 18.0004 10.5413
C 0.974554 21.2512 16.0236
O 29.2668 22.1609 15.0208
H 1.28778 22.6145 14.7225
C 22.3126 16.2252 17.5927
O 21.7336 16.4144 18.8865
H 22.4276 16.2048 19.4927
C 2.73196 13.8067 12.9994
O 3.10526 15.1609 12.7316
H 3.95778 15.2171 12.3277
C 25.0927 5.15715 25.8179
O 24.0793 4.43972 26.5273
H 23.6633 3.90377 25.8694
C 29.2549 23.7542 10.8867
O 28.1037 22.9162 11.018
H 27.4802 23.3651 11.5682
C 3.89828 26.9963 3.50685
O 3.38089 28.1572 2.85154
H 3.03643 27.873 2.01873
C 25.7262 4.20118 6.70708
O 25.949 4.65984 8.04308
H 25.7257 5.57807 8.04608
C 26.4709 27.8908 3.45818
O 26.0469 29.0357 2.71368
H 25.1053 29.0087 2.63751
C 18.0066 3.65005 19.1744
O 16.6834 3.18168 18.9011
H 16.7193 2.244 19.013
C 6.21712 4.25127 15.5577
O 7.19544 3.31961 15.0889
H 7.22169 3.23365 14.1482
C 21.3602 14.6836 13.112
O 22.6165 15.1101 12.5784
H 23.1239 15.6561 13.1593
C 27.4158 28.9442 8.8627
O 28.818 28.8987 8.58612
H 29.1303 0.981235 8.27289
C 25.8083 7.3212 11.1067
O 26.4152 6.53645 10.0767
H 26.6873 5.76643 10.5522
C 1.35097 2.47294 1.22391
O 29.3455 3.1886 2.20275
H 28.445 3.03285 1.96192
C 20.9957 16.2455 25.4453
O 21.8532 17.3005 25.0017
H 21.6066 17.5439 24.1225
C 7.04778 4.77831 29.0271
O 6.88635 6.12482 0.72817
H 6.21917 6.58042 28.9904
C 25.5153 13.9824 15.7072
O 25.812 13.3873 16.9732
H 25.8373 12.4609 16.7882
C 16.9207 12.1195 10.3137
O 15.7598 11.863 9.51904
H 14.9868 11.8958 10.0616
C 3.30482 7.32828 26.1693
O 1.91254 7.04146 26.0138
H 1.8545 6.24332 26.5164
C 7.14261 27.961 3.50156
O 7.60549 28.3913 4.78433
H 8.10284 27.7593 5.2806
C 17.6532 16.8666 28.2378
O 16.2875 16.8673 27.8138
H 15.7729 16.5974 28.5591
C 16.128 28.4028 18.5154
O 17.2103 29.2276 18.9551
H 17.9382 29.0686 18.3739
C 9.88603 10.8746 14.3025
O 10.1052 11.5664 15.5347
H 9.69353 10.9633 16.1346
C 8.35016 8.94213 1.43
O 8.57214 9.84004 29.0919
H 8.27833 10.7333 29.1859
C 10.0218 1.35239 15.2425
O 10.1726 0.968143 13.8733
H 9.44298 1.30828 13.3784
C 3.91826 7.4626 14.3722
O 4.10319 8.00601 15.682
H 3.52121 7.58128 16.2935
C 19.0728 13.8072 5.15182
O 18.4698 14.1579 6.40011
H 17.7659 13.5499 6.56711
C 4.41913 3.87748 26.0442
O 3.83772 4.12308 27.3274
H 2.90881 3.9496 27.3206
C 27.986 7.03589 24.3786
O 28.7436 8.24104 24.5152
H 0.729141 7.95391 25.0308
C 24.4786 11.6335 12.9097
O 24.9491 10.2831 12.9116
H 24.6923 9.95256 12.0643
C 7.10799 21.7088 13.5538
O 7.17289 21.0485 12.287
H 7.37971 21.6777 11.6129
C 13.4241 8.99853 19.7896
O 14.2488 9.75896 18.9027
H 13.9138 9.36843 18.1101
C 12.7838 12.9533 12.2727
O 13.4015 12.0177 11.3849
H 13.0126 11.1628 11.2802
C 27.5074 13.4462 22.3202
O 27.4636 13.7168 20.9168
H 28.0299 14.4572 20.7613
C 20.9419 23.211 1.71133
O 21.4823 22.0987 0.993248
H 20.7966 21.6839 0.492439
C 8.3816 17.0332 6.83475
O 9.39323 17.4433 5.91098
H 10.1721 17.7606 6.34187
C 28.2601 9.83461 21.2542
O 29.4438 9.0725 21.5048
H 0.595319 8.83698 22.4149
C 27.4917 17.8626 23.8064
O 28.2961 19.027 23.6014
H 28.4312 19.4193 24.4505
C 13.375 10.2161 25.1995
O 13.9223 11.1844 24.3007
H 13.4309 11.9914 24.3211
C 19.5448 29.3447 16.2337
O 19.2144 28.5054 17.3433
H 19.95 27.9715 17.602
C 10.5598 28.7194 10.7827
O 10.2208 27.4944 11.4379
H 10.8286 27.3614 12.1492
C 14.6005 13.9842 27.2541
O 13.9533 13.4026 28.3889
H 14.4268 13.6436 29.1704
C 20.3353 10.3869 12.6965
O 20.6231 10.0857 11.3285
H 21.2548 9.38351 11.3571
C 1.90172 11.7386 23.4562
O 2.49054 12.9138 22.8931
H 2.68938 12.793 21.9772
C 7.99282 3.27278 7.64966
O 8.73573 4.39591 7.16845
H 9.59688 4.02677 7.04525
C 22.005 7.08512 10.2402
O 22.4967 8.11762 11.0987
H 23.231 8.48572 10.6315
C 21.5644 3.34532 9.97352
O 22.6211 2.9113 9.11325
H 22.242 2.79967 8.25481
C 14.8099 3.2283 22.3066
O 14.1665 3.74141 21.1371
H 14.7429 4.35704 20.7107
C 3.63909 23.5125 18.5682
O 2.21887 23.3854 18.4599
H 1.97945 22.5716 18.8764
C 22.0593 20.949 6.13506
O 21.954 22.3186 6.53278
H 22.805 22.6872 6.35136
C 25.9887 21.2804 26.0296
O 24.9454 21.1373 26.997
H 24.5528 21.9964 27.0254
C 8.44456 27.8901 22.1674
O 7.57731 27.9365 23.3034
H 7.37196 27.0498 23.5576
C 3.27937 16.1491 24.202
O 3.84394 15.0469 23.4869
H 3.16669 14.3883 23.4625
C 23.4774 15.2741 21.7347
O 24.3358 14.5218 20.8733
H 23.9725 13.6546 20.779
C 28.3047 27.9608 23.7785
O 28.732 28.1584 25.1287
H 27.9945 28.5404 25.5795
C 10.9384 26.9274 25.7204
O 11.3835 25.9702 26.6851
H 12.0655 25.5339 26.1978
C 11.8253 18.6226 12.985
O 13.1908 18.2766 13.2308
H 13.6574 18.9905 12.8239
C 15.1197 17.1189 19.6026
O 15.1843 18.3498 18.8777
H 14.3685 18.4048 18.404
C 6.20496 26.079 19.9848
O 5.09394 26.877 20.4015
H 4.69722 26.3786 21.0996
C 12.821 1.13308 17.5534
O 12.1003 28.837 18.206
H 11.8953 29.1188 19.0843
C 1.2142 1.17398 20.4937
O 29.3193 28.7584 19.9824
H 28.6466 29.1167 19.4237
C 11.4069 2.37367 24.7013
O 11.8702 3.47072 25.4929
H 11.4978 4.26212 25.1352
C 19.9631 1.24577 29.3892
O 20.2097 1.19045 27.9817
H 19.6478 29.265 27.6387
C 16.0182 18.8221 15.0235
O 16.7591 17.8436 15.7573
H 17.0806 18.2791 16.5318
C 14.636 25.8752 10.792
O 13.853 26.9223 10.2128
H 13.0681 26.5829 9.81045
C 12.6086 18.6717 22.2878
O 11.9082 17.4253 22.3147
H 12.3962 16.902 22.9319
C 20.9231 20.0289 19.1657
O 21.917 20.1269 20.1891
H 22.6825 20.2702 19.6539
C 25.5659 1.55307 22.5252
O 26.3144 2.09449 23.6168
H 25.9892 1.6286 24.3719
C 21.0064 25.9595 27.3107
O 22.2031 26.2482 28.0384
H 22.3032 27.1411 27.7456
C 20.1213 12.6748 22.202
O 19.2551 13.7821 21.9399
H 19.075 13.8989 21.0196
C 9.38176 15.076 21.3447
O 9.33287 14.0292 22.3176
H 8.44408 13.7104 22.2794
C 1.87572 19.8385 3.7946
O 1.96336 21.2656 3.7708
H 1.28994 21.6185 4.33209
C 18.9317 28.8438 22.0606
O 20.222 29.1785 21.5429
H 20.2824 1.36841 21.5769
C 10.1096 10.9472 25.6087
O 10.3812 11.9911 26.5476
H 10.4149 12.7205 25.9478
C 23.165 10.6109 9.04108
O 24.1364 9.6421 9.44438
H 24.7313 9.59165 8.71187
C 13.5075 15.4757 15.619
O 12.9653 16.7772 15.3797
H 13.1825 17.1752 14.5506
C 4.90297 15.7026 15.845
O 4.85536 14.6364 16.7967
H 3.93655 14.4422 16.902
C 3.92624 12.8195 5.00354
O 4.17684 12.9684 6.40352
H 3.40578 13.4443 6.67174
C 24.2321 10.105 17.4874
O 25.4227 10.6934 16.9572
H 25.6547 10.1701 16.2054
C 9.22155 11.1216 19.538
O 10.2286 10.1097 19.6208
H 10.2041 9.64689 18.7972
C 4.47296 22.1896 28.0176
O 3.96303 23.1033 27.043
H 4.4762 23.8954 27.092
C 5.16313 25.3091 11.3397
O 5.01019 24.7731 10.0228
H 4.86644 25.4514 9.38073
C 12.0267 13.6537 4.38369
O 11.0594 13.6246 3.33092
H 11.3863 12.9302 2.77951
C 0.989127 10.3395 27.262
O 29.4109 11.6764 26.877
H 0.959267 12.2787 27.5401
C 12.2747 7.83574 11.047
O 12.7035 9.19662 10.9518
H 12.3003 9.71998 10.2761
C 14.604 23.7708 14.3406
O 15.6706 22.955 13.8493
H 16.2289 22.8029 14.5965
C 19.5873 22.1972 12.7599
O 18.9464 21.9843 11.4995
H 19.5802 22.273 10.8608
C 18.0506 4.60721 15.3665
O 17.3633 5.41429 14.4068
H 18.0123 6.01313 14.0703
C 3.70087 26.1925 15.652
O 4.31031 25.8433 14.4063
H 4.61939 26.6405 14.0039
C 21.8649 28.5765 7.91064
O 21.8581 27.5293 8.88445
H 21.1942 27.772 9.51175
C 16.4242 12.1986 16.9473
O 16.1885 11.7097 18.2703
H 15.325 11.3259 18.2696
C 7.79043 22.189 22.9862
O 8.13872 23.5669 22.8283
H 8.89616 23.6583 22.2706
C 28.6103 8.827 16.6224
O 28.8068 7.51849 16.0801
H 28.9756 7.70717 15.1696
C 8.17281 13.1041 28.1947
O 7.26081 12.2659 28.9092
H 6.54469 12.1637 28.3011
C 4.86954 20.9773 16.1714
O 5.09665 20.0916 17.2709
H 5.98696 19.7872 17.1829
C 29.0891 11.2597 6.88298
O 28.8321 12.5973 7.31859
H 27.9015 12.5981 7.48285
C 3.21854 28.3702 26.4567
O 2.09596 27.5576 26.8093
H 1.40304 27.7622 26.2002
C 2.33496 28.1353 11.2889
O 3.28758 28.2812 12.3453
H 4.04756 28.5971 11.881
C 22.6362 2.57608 5.59326
O 21.5147 3.25459 6.16491
H 21.6322 4.16589 5.94414
C 13.6421 12.4657 20.6752
O 12.7468 13.5497 20.9366
H 12.7649 13.6677 21.874
C 12.9329 28.1103 21.2524
O 11.5988 28.525 20.9471
H 11.5568 0.716138 20.9742
C 26.5443 1.74904 18.6618
O 26.6871 29.0917 18.4698
H 26.3031 28.8762 17.6337
C 7.2239 22.5175 19.3427
O 8.07845 22.7086 18.2122
H 8.27007 23.6304 18.2928
C 12.0222 10.7679 7.74439
O 11.5156 10.5541 9.06442
H 10.6035 10.7898 8.98983
C 14.124 6.06379 4.26436
O 14.02 5.2979 5.46747
H 14.1141 4.37709 5.27704
C 8.14271 3.57494 21.7151
O 9.48336 3.72427 22.1898
H 9.41662 4.40878 22.8379
C 13.0157 27.7253 13.4978
O 11.6015 27.5188 13.5457
H 11.2313 28.3477 13.8084
C 15.1795 15.6646 4.67088
O 15.1414 14.2374 4.58968
H 15.2114 13.9036 5.47102
C 5.37823 4.74934 3.99552
O 4.55494 4.13244 3.00228
H 4.578 3.19975 3.15252
C 0.764625 0.909363 4.64524
O 1.37874 2.19459 4.77157
H 0.990476 2.68519 4.06334
C 18.2343 7.61709 4.87606
O 18.5906 7.83899 3.50905
H 17.8478 7.61082 2.97119
C 3.53888 16.5889 20.6574
O 4.07727 17.2755 19.5244
H 4.93806 17.5548 19.7965
C 27.0437 8.02067 28.9334
O 27.109 6.60019 29.0846
H 27.9888 6.43279 29.3861
C 11.7679 23.5861 11.7297
O 10.401 24.0038 11.6841
H 10.2835 24.4473 12.5102
C 24.2104 4.94712 21.468
O 22.907 4.54213 21.0414
H 22.7876 4.51544 20.1044
C 7.5082 20.0229 0.67883
O 8.56949 19.4749 1.46513
H 8.25484 18.7573 1.99347
C 25.4419 16.5539 4.92094
O 25.3296 15.4053 5.76526
H 24.4686 15.4754 6.1484
C 15.9175 26.3678 21.576
O 14.8865 25.3972 21.3769
H 15.0159 25.0673 20.5008
C 4.06777 22.4501 23.2022
O 3.08067 23.3769 22.7423
H 2.27897 22.9024 22.5837
C 2.82543 22.0652 8.54512
O 2.08085 21.3605 7.54817
H 2.47918 20.5036 7.56265
C 14.6607 19.4286 0.699283
O 15.1284 20.7791 29.404
H 15.9151 20.907 1.15923
C 5.25359 1.67268 22.8885
O 5.81516 0.918115 23.9656
H 6.5551 29.1986 23.6153
C 24.4945 19.9804 22.9995
O 25.3589 20.8126 22.2216
H 25.7087 20.2757 21.5271
C 4.74599 8.20052 21.7286
O 5.62987 7.28066 21.0824
H 5.08926 6.89525 20.4099
C 25.2376 18.7278 12.5901
O 24.2108 17.7759 12.2994
H 24.1097 17.8255 11.3611
C 6.08483 25.732 27.9043
O 5.64191 25.1875 26.6584
H 5.891 25.7532 25.9436
C 10.9435 8.96268 4.25106
O 11.2325 10.3593 4.35587
H 10.4615 10.7819 4.70239
C 2.78558 11.944 16.6324
O 2.4624 13.0116 17.5272
H 1.54903 13.2234 17.4092
C 7.34539 26.1294 15.3788
O 7.81394 27.4327 15.0226
H 7.22875 28.0595 15.4196
C 9.97203 26.1589 18.3761
O 9.14618 25.1558 18.9733
H 9.60295 24.8622 19.7468
C 14.7319 9.51583 0.862353
O 14.2344 8.26133 1.33523
H 13.3047 8.23726 1.16752
C 20.1005 25.53 6.21641
O 19.6423 26.8279 5.82849
H 19.1742 27.1773 6.57134
C 9.17455 4.92566 17.4642
O 9.51504 6.17049 18.0801
H 10.4231 6.07697 18.3243
C 5.91721 0.897823 9.95857
O 5.65209 0.7517 11.3562
H 6.30901 28.9446 11.7413
C 11.9749 17.7398 3.28764
O 11.9758 19.1632 3.42448
H 11.7399 19.4286 2.54871
C 5.92281 24.6078 6.35984
O 5.8603 24.6393 4.93155
H 5.14903 24.053 4.72344
C 6.13818 9.16024 18.4063
O 6.34147 9.05771 16.9945
H 5.60019 8.65381 16.5698
C 27.9633 12.6223 12.8348
O 27.2976 13.7277 12.2185
H 26.5939 13.406 11.676
C 1.80937 9.82887 2.70104
O 2.88421 9.36897 3.52451
H 3.66837 9.31471 2.99994
C 18.2833 5.22079 7.5193
O 18.0395 5.89171 8.75839
H 18.5869 6.66139 8.72631
C 6.66456 20.4589 7.47204
O 5.68944 20.0427 8.43161
H 4.95397 19.7652 7.90709
C 16.0357 1.73429 14.7696
O 16.0741 29.156 14.2476
H 16.3647 29.1828 13.3488
C 5.34072 4.25988 19.8206
O 4.63885 5.36397 19.2433
H 4.13653 5.02501 18.5181
C 26.0945 26.1756 20.749
O 25.4156 26.7295 19.6189
H 25.9408 27.4667 19.3472
C 19.9788 19.4748 15.5393
O 19.4072 20.5259 16.3224
H 18.8175 20.1002 16.9257
C 21.4659 12.0372 17.3063
O 20.1322 11.5575 17.1167
H 19.6598 12.3 16.7724
C 20.2358 6.43007 20.7231
O 19.3408 7.52473 20.51
H 19.768 8.36463 20.5812
C 23.7193 24.4027 4.52277
O 24.2534 23.3319 5.3058
H 24.3926 22.5396 4.80995
C 2.19666 17.851 16.7564
O 1.87286 17.5149 18.1081
H 2.6893 17.541 18.5833
C 18.65 17.5739 8.04711
O 18.596 18.9882 7.8431
H 17.7241 19.336 7.95249
C 19.449 9.02977 8.22664
O 19.3713 8.05072 9.26603
H 19.5788 8.44721 10.0984
C 14.2122 27.8357 3.04165
O 15.2659 27.121 3.69262
H 15.674 27.7112 4.30759
C 9.29732 23.4204 27.1973
O 9.68537 24.4596 28.0998
H 10.1266 25.094 27.5559
C 16.3271 14.5713 22.5516
O 17.2762 15.2017 23.4158
H 17.9474 14.545 23.5228
C 17.996 4.50865 23.0822
O 18.8908 3.39352 23.1106
H 18.7878 2.91954 23.9216
C 22.5981 7.87479 28.1794
O 22.8062 9.25646 27.8751
H 23.4188 9.26209 27.1555
C 29.3381 25.2493 4.8389
O 29.1442 24.8954 6.21079
H 28.3668 24.3683 6.31518
C 28.4533 16.8739 7.41964
O 29.2303 16.5653 8.57977
H 28.6664 16.5327 9.33738
C 28.9472 16.6479 13.9491
O 1.16731 17.0388 12.9764
H 1.75089 16.2985 12.9099
C 23.1913 6.83097 5.35096
O 22.1581 5.87073 5.58608
H 21.5073 6.01669 4.91661
C 1.59341 20.1847 26.1985
O 0.830604 21.0024 25.3072
H 0.808479 21.888 25.6361
C 4.03008 5.47793 9.53319
O 4.94073 4.9523 8.56401
H 5.73987 5.45532 8.60087
C 17.3213 18.8945 11.8902
O 17.4833 19.7949 10.7911
H 17.8642 20.581 11.1516
C 16.4475 28.4136 28.7602
O 17.2908 28.6218 27.6243
H 16.8348 28.477 26.8093
C 29.0045 8.70612 12.5262
O 29.4123 7.55818 13.2751
H 29.2793 6.8604 12.6519
C 7.2921 16.9212 18.2172
O 7.2676 18.1199 18.9965
H 8.13894 18.319 19.3034
C 23.9034 12.4485 28.0723
O 24.2526 11.2822 28.8225
H 23.7099 10.5658 28.5305
C 15.7799 8.7143 13.4053
O 14.4265 9.17599 13.3972
H 14.1565 9.32546 12.504
C 1.26085 22.7595 1.09164
O 28.7651 22.8522 29.1527
H 28.9363 23.0272 28.24
C 8.02799 23.7385 2.59316
O 8.07731 24.2134 3.94111
H 7.20714 24.3846 4.26746
C 19.563 26.7876 2.53726
O 20.477 27.5208 3.35695
H 20.3106 27.3224 4.26578
C 5.33278 16.1127 8.94395
O 4.50506 15.9185 7.79413
H 3.74011 15.4449 8.08321
C 3.59717 9.91223 10.3247
O 4.79276 9.29366 9.84216
H 5.13598 9.84671 9.15706
C 19.9439 13.81 9.10099
O 20.5182 14.4766 7.97375
H 19.8564 14.4933 7.2994
C 18.7935 9.40205 23.4229
O 19.4707 9.57302 24.6708
H 20.3651 9.35966 24.453
C 1.97424 14.6817 28.0313
O 1.81833 13.4086 28.6635
H 2.48389 13.3884 29.3341
C 12.2534 23.204 2.04171
O 12.2539 24.0241 0.870236
H 11.3365 24.1421 29.429
C 14.7586 20.0334 25.2836
O 15.8462 19.524 24.5074
H 15.7517 18.5841 24.4816
C 10.8886 15.6302 0.582115
O 11.7925 16.7232 29.1519
H 11.8247 16.7792 28.2092
C 16.5985 24.022 7.13251
O 16.0387 24.7016 6.00568
H 16.1964 25.6282 6.10344
C 26.906 11.3795 2.49149
O 25.5255 11.5705 2.81201
H 25.0856 11.2539 2.03788
C 18.6456 2.56547 4.23161
O 17.7476 3.58753 3.79122
H 16.8665 3.25522 3.87033
C 20.3832 4.6128 26.9409
O 21.0627 3.41987 26.5406
H 20.796 2.78537 27.1882
C 12.41 3.46133 11.9669
O 11.7017 3.96157 10.8298
H 10.9732 4.4107 11.2304
C 26.1208 26.1004 26.4105
O 24.8952 26.2151 25.6826
H 24.4718 27.0594 25.7112
C 20.5208 12.4397 2.32748
O 20.5342 13.4569 1.32245
H 20.1915 13.0868 29.2759
C 13.1807 11.328 15.9495
O 13.4865 9.93749 15.816
H 13.9364 9.78894 14.9984
C 15.3118 16.431 10.6518
O 14.6445 15.8238 11.7612
H 13.8162 16.2787 11.7588
C 26.4376 6.19134 18.7021
O 27.3862 5.12127 18.6912
H 27.8385 5.21904 19.5152
C 10.6388 16.3256 9.71152
O 10.6438 14.9415 9.35252
H 11.5584 14.7114 9.29263
C 5.54677 17.1326 4.82602
O 4.22751 16.9719 5.35386
H 4.26008 16.515 6.18045
C 5.6505 12.2001 25.5718
O 5.42347 11.9128 26.9542
H 5.64026 11.0028 27.0877
C 10.9204 24.6126 15.2461
O 10.2377 25.2518 14.1644
H 10.8334 25.9176 13.8563
C 8.7913 7.86366 12.9469
O 7.58533 8.61334 12.7781
H 6.96053 8.06842 12.3245
C 26.7045 14.694 1.08232
O 26.5466 14.5644 2.49764
H 25.7005 14.1611 2.61817
C 22.8361 27.6233 22.2161
O 22.7581 28.8836 22.8872
H 21.9395 29.2013 22.5379
C 28.6895 25.9221 13.9917
O 29.1541 25.4422 15.2561
H 0.921917 24.6846 15.0363
C 15.9211 8.5607 9.18493
O 16.2118 7.81814 7.99792
H 16.4947 6.96562 8.29158
C 2.91436 8.08332 6.78488
O 1.76933 8.45771 6.0144
H 2.13641 8.77026 5.20163
C 11.776 0.789627 27.9815
O 11.7128 1.11417 29.3727
H 10.7866 1.07896 0.804111
C 11.8579 6.10922 20.4632
O 12.3321 6.33945 19.134
H 13.1962 5.98144 18.9986
C 2.97076 22.1973 12.967
O 2.63706 23.3246 13.7811
H 3.11401 24.1145 13.5771
C 21.552 26.9876 13.9746
O 22.9472 26.6872 13.8853
H 23.1345 26.2233 14.687
C 4.89817 19.4052 25.6136
O 5.41373 19.2211 26.9346
H 4.69738 19.0833 27.5354
C 23.563 11.7517 5.6874
O 24.8732 11.1976 5.54064
H 25.0638 11.3761 4.63245
C 8.18485 14.4463 13.6712
O 6.92675 14.512 12.9947
H 6.82751 15.3814 12.638
C 12.7557 24.3255 5.28257
O 13.8469 23.4021 5.3215
H 14.6261 23.9359 5.35136
C 10.7282 21.4079 17.015
O 10.6367 22.5076 17.9244
H 9.71561 22.6777 18.05
C 11.1704 24.8949 21.924
O 10.3628 23.9667 21.195
H 11.031 23.3701 20.8941
C 21.6427 17.1047 5.23843
O 21.8797 17.5992 3.91776
H 21.7969 16.8661 3.32728
C 8.47805 10.5312 9.68836
O 8.95124 11.1547 8.4916
H 8.57825 10.717 7.74171
C 1.12128 5.2612 21.0774
O 28.4854 4.92464 21.1409
H 28.4316 4.20151 21.7469
C 7.84935 16.7314 26.3358
O 9.20623 16.6477 25.8922
H 9.25227 17.2699 25.1824
C 17.818 19.8778 3.25117
O 17.7033 20.5051 1.97122
H 18.5705 20.6585 1.62867
C 21.9459 5.4439 13.8839
O 21.814 6.82321 14.2374
H 22.6311 7.06387 14.6467
C 22.3216 3.15036 2.09828
O 22.7805 2.85364 0.776819
H 23.6188 3.2855 29.4687
C 21.8396 23.6536 16.4587
O 22.7341 24.6756 16.9063
H 22.297 25.0708 17.645
C 8.08028 7.39845 25.6426
O 7.22218 8.52772 25.46
H 7.61611 8.87258 24.6733
C 21.4836 16.835 0.806911
O 21.7537 15.8836 1.83972
H 21.5121 15.0585 1.4474
C 16.7071 4.10481 11.358
O 16.2772 4.08723 9.99426
H 16.7138 4.81952 9.58667
C 17.5949 8.84276 16.4252
O 18.5764 9.27367 15.4786
H 19.1732 9.87567 15.8962
C 20.2516 22.8979 25.0445
O 21.3203 22.2719 25.7592
H 22.0411 22.8437 25.5435
C 29.3403 2.76908 24.3362
O 28.6619 3.39507 23.2441
H 27.76 3.27323 23.4985
C 27.4089 7.2926 5.09555
O 27.8283 7.93603 6.3018
H 28.7712 7.99055 6.33176
C 21.405 3.63783 17.6276
O 22.4565 4.31204 18.3238
H 23.0068 4.81123 17.7398
C 5.2365 21.461 3.75557
O 4.41826 22.544 4.2056
H 3.52195 22.2946 4.37134
C 25.9208 10.1306 25.2572
O 24.5123 9.88386 25.2555
H 24.192 10.7574 25.0901
C 15.3584 29.0766 24.8076
O 16.3096 28.064 25.1464
H 15.9418 27.222 24.9254
C 5.77122 11.3448 14.5231
O 6.95571 11.331 15.3242
H 7.14653 10.4697 15.6629
C 1.54487 3.82711 13.9185
O 1.61859 2.45835 13.5111
H 0.795877 2.20284 13.1227
C 23.3749 22.445 11.9695
O 23.3061 23.85 12.2263
H 22.5906 24.1461 11.6846
C 1.04712 24.158 25.7096
O 1.2129 23.1274 26.687
H 2.14904 23.0308 26.7726
C 16.2422 6.63776 25.5239
O 15.9083 7.97569 25.1453
H 16.2191 8.54383 25.8335
C 10.8457 5.27231 28.3769
O 11.9265 6.13392 28.7434
H 11.5216 6.98418 28.6652
C 11.7889 6.88095 15.7441
O 11.2711 8.19024 15.9943
H 11.9994 8.78838 16.0643
C 16.1946 24.1605 2.65439
O 15.9466 25.3995 1.98486
H 15.8391 26.0872 2.62405
C 17.5919 21.902 26.7954
O 17.3852 20.7692 27.6432
H 16.461 20.5918 27.7292
C 5.13068 1.18377 29.2316
O 6.41604 1.77751 29.031
H 6.65739 1.59005 28.1368
C 7.55466 0.70944 18.6762
O 7.21149 2.08247 18.4714
H 6.50695 2.07215 17.8417
1500
 Atoms. Timestep: 50000
O 8.17337 17.3984 23.9372
H 7.39949 16.7887 24.1085
H 9.02437 16.9337 24.1817
O 15.6317 9.89531 20.5927
H 14.9978 10.6168 20.3141
H 15.5412 9.73344 21.5754
O 15.846 23.0119 26.648
H 15.7388 22.0893 27.0185
H 16.7303 23.3838 26.9303
O 9.15576 8.23736 9.10895
H 8.42595 8.92007 9.07334
H 8.88992 7.43694 8.57168
O 18.87 24.6366 21.2325
H 19.5328 24.5554 21.9769
H 18.8949 23.8087 20.6722
O 18.7529 22.4548 19.4524
H 19.7336 22.2649 19.499
H 18.3876 22.1112 18.5873
O 6.85756 10.8845 17.9288
H 6.09298 10.8648 17.2846
H 7.71243 10.7203 17.4367
O 22.8796 9.27971 22.2828
H 21.9547 9.10881 21.943
H 23.541 9.0975 21.5552
O 2.33635 19.6169 11.2033
H 2.28831 19.6639 10.2056
H 2.75586 18.7512 11.4764
O 12.0698 2.14628 21.7229
H 12.6791 2.77842 21.2443
H 12.1689 2.27095 22.7102
O 7.39082 16.809 14.0267
H 7.80319 16.5956 14.9124
H 7.33551 17.8013 13.9152
O 1.83204 21.3434 4.87787
H 2.42043 21.9404 4.33248
H 1.93606 21.5678 5.84681
O 16.8577 1.33635 9.96764
H 16.0733 1.19611 9.36346
H 16.8722 2.28622 10.28
O 16.6826 3.73694 25.3373
H 16.9622 4.33806 24.5886
H 16.2277 2.92861 24.9636
O 10.7252 11.8851 23.37
H 10.8371 11.47 22.4672
H 11.6247 12.0507 23.7745
O 16.0474 19.9378 9.08064
H 16.7804 20.5627 9.3494
H 15.7262 20.1754 8.16392
O 12.7781 13.8715 28.3451
H 13.2577 14.6688 28.7114
H 12.3123 14.1234 27.4968
O 11.9643 25.1734 18.774
H 11.4672 26.0403 18.7376
H 12.0828 24.8179 17.8468
O 27.4719 28.2407 6.04172
H 26.9005 29.0089 5.753
H 28.2589 28.1622 5.42976
O 26.2205 16.6799 8.97575
H 26.5211 16.8735 8.04187
H 26.8075 17.1667 9.62258
O 12.3497 8.22511 18.5909
H 12.9806 7.73856 17.9866
H 11.4676 7.75432 18.6006
O 26.4067 22.9016 10.1808
H 26.0313 23.5436 9.51222
H 25.6909 22.6366 10.8268
O 13.9696 14.5778 25.3284
H 13.1255 15.0195 25.6323
H 14.6916 15.2639 25.2399
O 23.6157 3.3503 11.7066
H 23.9293 2.59524 12.2824
H 22.6312 3.47615 11.8289
O 24.3808 1.05792 26.3645
H 23.7236 29.356 25.7631
H 23.9069 1.40664 27.1731
O 28.8607 22.0095 9.10831
H 29.2502 22.7363 8.54251
H 27.9505 22.2817 9.42047
O 3.82113 4.26011 1.72314
H 4.66407 3.84493 2.06531
H 4.04453 5.07206 1.18386
O 3.65355 4.91248 10.4248
H 3.22816 4.80592 9.52607
H 3.02585 5.39513 11.0356
O 8.76066 26.6364 10.2246
H 8.77695 27.2246 11.0332
H 7.84098 26.635 9.83193
O 10.9644 19.3386 20.8378
H 11.0929 18.4376 20.4234
H 10.9866 20.0396 20.1249
O 1.07376 9.75617 20.3017
H 29.1963 10.0734 19.5928
H 29.3167 9.57162 21.1421
O 1.87098 25.2556 19.6157
H 1.66396 24.4065 20.1018
H 1.25882 25.9795 19.9338
O 20.6145 13.5219 19.4731
H 20.617 13.2622 20.4388
H 20.0567 12.8735 18.955
O 10.2012 9.66809 25.1128
H 9.67145 9.09805 24.4848
H 10.5842 10.4459 24.6145
O 25.1083 17.7917 1.56818
H 24.704 17.9113 0.661399
H 24.8216 16.912 1.94756
O 17.1125 10.9942 2.13398
H 16.375 11.6633 2.22565
H 16.7228 10.0758 2.06592
O 14.0194 3.68661 29.1242
H 13.6268 3.42595 1.25366
H 14.2396 4.66205 29.1325
O 25.8708 6.97498 6.24576
H 25.021 6.83235 5.73837
H 26.5575 6.31654 5.93764
O 15.1064 6.19056 28.9913
H 15.7939 5.65584 28.4999
H 15.5556 6.75425 0.932001
O 8.53196 12.9394 8.35542
H 8.21203 13.5722 7.6503
H 8.95014 13.4564 9.10233
O 3.40858 11.3469 19.9031
H 2.5258 10.8773 19.9173
H 3.35145 12.146 19.3046
O 12.273 4.17748 26.9357
H 12.9211 3.77383 27.5814
H 12.2111 5.16239 27.0973
O 19.0252 4.23255 22.8762
H 18.1915 4.60149 22.4653
H 18.8607 3.29346 23.1779
O 24.7805 28.7695 1.19818
H 25.5515 28.2782 1.60346
H 25.1217 0.790858 0.664623
O 2.3925 26.7913 3.12563
H 1.5569 26.2477 3.04632
H 2.51365 27.339 2.29779
O 28.3353 29.1159 1.0803
H 28.3494 28.7536 2.01226
H 28.6816 28.4228 29.2005
O 14.7069 20.2516 13.1395
H 15.435 20.914 12.963
H 14.28 19.9872 12.2748
O 24.1723 9.27923 15.5008
H 23.3599 9.49905 14.9608
H 24.3179 8.28989 15.4963
O 7.34601 19.5631 13.282
H 8.12552 20.1421 13.5209
H 6.7993 20.0145 12.5768
O 28.2479 3.51097 26.5952
H 27.821 2.70122 26.9978
H 28.461 4.16923 27.3172
O 15.8266 24.1465 16.8477
H 16.0949 25.0862 17.0602
H 14.8404 24.1098 16.6866
O 4.91199 10.0541 1.33561
H 5.37419 10.9328 1.45546
H 4.60182 9.96707 29.1414
O 25.2202 18.4793 21.3556
H 26.1618 18.7533 21.551
H 25.1833 18.0242 20.4659
O 19.9298 9.01403 21.8336
H 19.5817 8.09323 22.0095
H 19.3371 9.47375 21.1723
O 13.0017 17.4841 25.2354
H 12.9142 18.4748 25.3401
H 13.9198 17.1996 25.5112
O 23.9343 24.4489 17.8118
H 22.9634 24.6423 17.9524
H 24.2955 25.0542 17.1025
O 15.5685 20.3637 26.603
H 16.1191 19.5501 26.7896
H 14.627 20.2043 26.9
O 28.3841 10.5692 17.9371
H 27.5685 10.9032 18.4095
H 28.1584 10.3682 16.9838
O 15.8424 14.2342 1.0433
H 15.2008 14.9663 0.814402
H 15.3762 13.5428 1.59516
O 7.60659 10.4894 8.9402
H 8.00724 11.3995 8.83496
H 6.7721 10.4272 8.3927
O 12.7053 22.0913 27.5163
H 13.3239 22.4305 28.225
H 12.2342 22.8624 27.0881
O 8.85392 8.40776 22.9673
H 7.88137 8.63613 22.9227
H 9.00499 7.51054 22.5523
O 15.1581 1.76264 24.173
H 14.2631 2.14377 23.9412
H 15.0563 1.10114 24.916
O 4.13373 26.2046 5.07931
H 5.06394 26.5049 4.86824
H 3.51368 26.5064 4.35511
O 13.5135 7.45317 6.63469
H 12.5395 7.39502 6.85401
H 13.926 8.20664 7.14664
O 11.9172 3.33296 12.778
H 12.6792 2.99478 12.2257
H 11.0674 2.90425 12.4715
O 1.80552 18.645 21.4749
H 1.45859 18.1546 20.6754
H 2.7719 18.8631 21.3387
O 7.44703 13.9738 18.1713
H 8.43605 13.8289 18.1421
H 6.98089 13.0893 18.1867
O 2.16377 16.5431 2.87469
H 2.03874 16.5299 1.88262
H 1.72702 17.3584 3.25483
O 26.8643 1.55498 27.7584
H 26.4967 0.933585 27.0664
H 27.4349 1.04083 28.3987
O 4.25409 17.4487 7.39758
H 4.93358 16.715 7.39416
H 3.65894 17.3481 8.19487
O 7.34704 12.1976 3.83755
H 7.32422 11.2228 4.05959
H 6.8857 12.3513 2.96375
O 1.36695 22.4064 11.4979
H 1.58793 21.5345 11.9348
H 0.799597 22.2406 10.6912
O 2.68013 17.7513 27.8745
H 1.93478 17.4728 28.4802
H 3.5484 17.4125 28.2369
O 24.73 13.0661 27.4632
H 24.3812 12.1798 27.7679
H 23.9683 13.7048 27.3552
O 15.6877 20.6071 6.66382
H 14.7311 20.6383 6.37409
H 16.2025 21.3226 6.19147
O 18.743 6.37765 1.02267
H 19.7142 6.58864 1.13369
H 18.6399 5.59729 29.1584
O 16.8193 26.6162 11.949
H 17.2565 25.9526 12.556
H 16.7914 27.5098 12.3969
O 7.45217 5.69028 4.10685
H 7.12291 6.55918 3.73725
H 7.93753 5.18661 3.39219
O 22.7378 15.0329 14.8952
H 23.4945 15.3541 14.3256
H 22.9719 15.1543 15.8598
O 18.8032 15.4911 18.622
H 19.5492 14.8432 18.7756
H 17.9392 15.0795 18.9121
O 28.706 8.86036 12.1262
H 28.0141 8.40937 11.5625
H 28.7154 9.8394 11.9227
O 16.903 4.59825 28.0587
H 17.2089 4.28041 27.1613
H 16.5061 3.83316 28.5658
O 28.5827 22.8275 15.5715
H 28.9954 23.2767 14.7791
H 28.5379 23.4725 16.3344
O 16.8603 18.3346 23.8769
H 17.3951 19.1438 24.1203
H 15.9728 18.6184 23.514
O 29.1442 24.4736 7.54621
H 28.374 23.9991 7.12
H 28.8482 25.3764 7.85828
O 8.3457 10.8711 26.5349
H 8.75736 11.4804 25.8572
H 9.00325 10.1615 26.7881
O 1.08509 4.20878 1.97351
H 1.90285 3.63853 1.8955
H 1.32512 5.07849 2.40478
O 18.5464 10.2568 20.0797
H 17.5499 10.177 20.1074
H 18.8131 10.8354 19.3089
O 12.7525 21.2872 3.55231
H 12.4548 22.2105 3.30979
H 12.2031 20.6177 3.05237
O 27.3232 3.58126 3.27622
H 26.6574 4.25413 2.95395
H 28.1452 3.62743 2.70855
O 26.1429 12.8092 10.8269
H 26.3715 13.137 9.91018
H 25.2547 13.178 11.1009
O 21.6596 16.6572 25.1298
H 20.8007 16.2062 24.8873
H 22.2523 16.7001 24.3255
O 4.56982 18.7918 20.7869
H 5.41318 18.259 20.8568
H 4.76994 19.7566 20.9576
O 7.49136 15.9791 27.0708
H 8.2785 16.5932 27.0136
H 7.25691 15.6516 26.1555
O 26.1998 10.8242 19.6125
H 25.3589 10.7808 19.073
H 26.1822 10.1127 20.315
O 26.4901 20.1591 24.1471
H 27.1776 20.0324 23.4321
H 26.0188 19.293 24.3136
O 27.0717 25.8129 27.435
H 26.3831 25.0933 27.3462
H 26.8575 26.5588 26.8043
O 12.4688 20.0204 26.0006
H 12.6514 20.8912 26.4571
H 12.3634 20.1747 25.0182
O 4.24269 24.2635 18.7613
H 3.28642 24.533 18.8749
H 4.58495 23.8796 19.6189
O 13.4539 5.50025 4.88907
H 13.6532 6.25955 5.50857
H 12.5425 5.62123 4.49585
O 12.2745 22.7276 22.8642
H 12.4006 23.4497 23.5444
H 12.6592 23.0227 21.9896
O 13.7766 19.8234 10.5533
H 13.2167 19.1361 10.0906
H 14.6581 19.9035 10.088
O 29.2472 14.287 3.22799
H 0.771537 13.8337 4.07524
H 1.11288 15.0506 3.04122
O 28.3418 5.03897 9.89904
H 27.6847 4.38938 10.2814
H 28.945 5.36924 10.6251
O 23.7082 14.5254 11.0347
H 23.6668 15.3359 10.4505
H 22.8632 14.4528 11.5646
O 15.8404 26.9124 27.5717
H 15.2335 26.1523 27.3394
H 16.052 26.8834 28.5486
O 0.78513 24.4334 29.3051
H 0.838456 24.9897 28.4758
H 0.652447 25.0286 1.3452
O 2.78836 28.5282 18.1282
H 3.66824 28.4598 18.5985
H 2.90591 28.2881 17.1646
O 4.06486 10.3993 27.5896
H 4.81345 10.1168 26.9898
H 3.85823 11.365 27.4326
O 24.8725 6.79131 15.4879
H 25.1884 6.49982 14.585
H 25.362 6.27913 16.1936
O 10.4404 1.80678 1.85629
H 10.0021 1.44037 1.03552
H 11.4221 1.6193 1.82189
O 18.5039 14.3161 1.06047
H 17.5198 14.452 0.946048
H 18.7342 13.3635 0.861601
O 17.8088 1.90828 23.1474
H 16.837 1.96944 23.3752
H 18.1532 1.00306 23.3963
O 24.6614 17.3208 18.6623
H 23.9905 16.5855 18.5661
H 25.4108 17.1749 18.0164
O 17.3727 21.8464 17.2205
H 17.2344 22.7052 16.7272
H 17.4158 21.0901 16.5677
O 26.5191 14.0544 8.17283
H 26.6399 14.8516 8.7644
H 25.8678 14.274 7.44647
O 20.2959 1.27517 2.66468
H 19.4342 1.73491 2.87932
H 20.3203 1.05079 1.69049
O 12.7342 24.9532 24.8252
H 13.2315 25.5676 24.2127
H 13.1901 24.9286 25.7149
O 3.36492 1.72862 10.4751
H 3.87889 2.58298 10.3982
H 2.7531 1.63588 9.68957
O 0.859771 23.8234 13.4961
H 0.872616 23.2792 12.6572
H 1.69747 23.6549 14.0156
O 8.33299 19.3864 22.0217
H 9.23763 19.5247 21.6186
H 8.41352 18.8009 22.8284
O 7.15252 9.55882 4.05607
H 6.709 8.97105 4.7327
H 7.04384 9.1598 3.1456
O 14.5305 11.5565 28.4914
H 13.9351 12.2993 28.1849
H 15.4125 11.6222 28.0247
O 22.7391 1.90592 16.7727
H 22.2499 1.90553 15.9005
H 23.6828 2.20185 16.6254
O 18.9627 11.7647 29.0972
H 18.3927 11.4835 1.11671
H 19.8368 11.2805 29.1346
O 12.7411 6.94318 27.934
H 12.609 7.92819 28.045
H 13.6314 6.68208 28.307
O 16.8285 3.87412 10.9657
H 15.8863 3.89071 10.6312
H 17.201 4.80215 10.959
O 29.0556 7.62379 8.93713
H 28.4909 8.44309 8.83773
H 28.4947 6.87265 9.28529
O 19.6142 25.76 11.577
H 20.591 25.9718 11.6105
H 19.3872 25.1172 12.3086
O 23.2765 25.3102 24.1063
H 23.3041 26.3007 24.2411
H 23.9205 25.0539 23.3854
O 8.32353 15.9092 16.6086
H 7.87576 15.2246 17.1838
H 8.30654 16.7957 17.0709
O 25.0463 22.4397 24.298
H 25.727 21.7094 24.356
H 25.4863 23.2814 23.9849
O 6.46561 26.8881 8.81788
H 5.7152 26.2272 8.82286
H 6.22369 27.6714 9.39059
O 8.71911 16.4389 1.87666
H 7.82246 16.0143 2.00229
H 9.28858 15.8512 1.30192
O 10.9017 7.46024 7.0577
H 10.3437 6.67901 6.7779
H 10.4108 7.98978 7.74949
O 5.70211 20.0314 10.6565
H 4.8436 19.9224 11.1576
H 5.6006 19.6552 9.73554
O 15.5052 24.6371 9.81359
H 15.8912 25.0931 10.6155
H 15.0255 23.8078 10.1004
O 25.4189 23.5254 27.1885
H 26.2534 23.0905 26.8501
H 24.6497 23.2725 26.6016
O 25.5081 13.0726 24.7789
H 26.444 13.4027 24.6558
H 25.2758 13.0838 25.7515
O 21.0428 1.38311 24.9596
H 20.6141 1.96286 25.6525
H 20.4195 0.640605 24.7142
O 8.18346 6.38861 6.86918
H 7.73865 7.28329 6.82813
H 7.85371 5.81763 6.11736
O 4.48533 17.2851 4.40771
H 3.70311 17.0041 3.85165
H 4.18909 17.4268 5.35226
O 29.1588 27.1677 20.4162
H 28.7848 27.7146 21.1653
H 29.1147 27.6924 19.5661
O 22.4639 25.7794 11.701
H 22.7574 25.3503 12.5552
H 22.9444 25.3561 10.933
O 14.1745 3.31716 14.6141
H 13.3734 3.342 14.0162
H 14.5202 4.24606 14.747
O 27.7327 21.3105 4.69
H 27.6592 21.3407 3.69316
H 28.6966 21.2625 4.95187
O 9.84013 17.3513 26.801
H 9.92916 17.562 25.8275
H 9.56485 18.1751 27.2965
O 5.81574 20.8873 22.1757
H 5.59346 20.6714 23.1265
H 6.68973 20.4659 21.9338
O 20.7438 6.37975 22.6006
H 21.0874 6.4354 21.6631
H 20.125 5.59858 22.683
O 15.6036 14.4765 4.04026
H 15.2906 13.8291 3.34537
H 15.3268 14.1537 4.94536
O 10.0884 13.5309 17.808
H 10.1626 12.5419 17.6795
H 10.8913 13.9792 17.415
O 1.96471 5.48415 8.47524
H 1.64051 6.42225 8.35334
H 1.2643 4.948 8.94637
O 8.27831 26.2833 6.58374
H 9.01373 26.7475 7.07738
H 7.43204 26.343 7.11314
O 14.5421 1.0439 8.54813
H 13.8571 29.1716 8.9228
H 14.5369 0.984466 7.54991
O 16.4283 22.4528 12.3107
H 15.7291 23.1608 12.2118
H 16.7935 22.2168 11.4102
O 27.4496 16.6264 17.7872
H 27.6886 16.0815 16.9836
H 28.2819 16.8657 18.2873
O 27.8626 19.7707 1.67614
H 27.001 19.3052 1.47366
H 27.7403 20.7579 1.57306
O 12.2989 25.0217 10.1277
H 11.3277 25.2114 9.98325
H 12.4408 24.0334 10.1836
O 24.8687 25.7392 15.2711
H 25.0361 26.7244 15.2352
H 25.7224 25.2493 15.0943
O 9.51856 14.5721 10.5543
H 9.08924 14.5583 11.4573
H 10.4531 14.9187 10.6348
O 23.4194 7.05853 4.53502
H 23.9892 7.33682 3.76184
H 22.5246 7.49964 4.46541
O 22.7015 15.2202 18.1617
H 23.5151 14.6618 17.9997
H 21.9782 14.6501 18.5515
O 13.9242 16.1014 29.1478
H 13.9906 16.3853 1.35186
H 14.0024 16.9035 28.5559
O 14.5622 12.2999 2.54463
H 14.5135 11.839 1.65851
H 13.8493 11.9407 3.14683
O 13.322 27.4054 9.16177
H 13.1091 26.7451 9.882
H 14.1958 27.1665 8.73824
O 18.0757 15.8716 3.47528
H 17.1179 15.631 3.63275
H 18.4661 15.2551 2.79153
O 25.4779 28.7882 15.1216
H 26.396 28.4428 15.3159
H 25.3434 0.90779 15.5921
O 12.1395 20.1766 23.2798
H 12.1902 21.1671 23.1513
H 11.5708 19.776 22.5614
O 6.46346 15.0855 24.7238
H 6.89868 14.2563 24.373
H 5.53587 15.1558 24.3568
O 4.74733 10.4713 16.3365
H 4.59653 10.01 15.4622
H 4.01353 11.1317 16.4959
O 15.0501 5.60305 18.971
H 15.1696 5.26025 18.0392
H 15.1425 6.59877 18.9743
O 24.5869 1.13657 12.8021
H 24.8187 29.2717 13.5539
H 23.9558 29.4303 12.1766
O 26.0989 5.13343 17.3547
H 25.5408 4.90728 18.1532
H 27.0076 5.42369 17.6546
O 5.63765 9.79023 20.447
H 6.21949 9.82521 19.6344
H 4.80399 10.3176 20.2829
O 21.3054 21.889 19.4993
H 21.9467 21.1333 19.3661
H 21.766 22.6366 19.9776
O 22.3836 24.4879 20.9846
H 21.9626 24.5385 21.8903
H 23.3697 24.3537 21.0825
O 28.975 1.30501 13.0939
H 28.5017 1.71999 12.3168
H 1.20164 1.49785 13.0294
O 5.1828 17.0923 28.7005
H 5.94323 16.7515 28.1476
H 5.50789 17.824 29.2995
O 16.1051 25.2358 20.9065
H 15.8466 24.3916 20.4368
H 17.0418 25.1542 21.247
O 7.99014 26.3056 18.7407
H 7.04572 26.5152 18.994
H 8.56528 26.3185 19.5587
O 11.3506 20.7581 7.9467
H 11.8979 20.4495 7.16873
H 10.7924 21.541 7.67185
O 5.98294 9.89112 25.7954
H 6.81164 10.37 26.0851
H 5.99335 9.77818 24.8018
O 5.53969 23.4787 20.9779
H 5.66347 22.5946 21.4286
H 5.22942 24.1536 21.6474
O 5.29947 26.6781 18.9167
H 5.4432 27.1933 18.0718
H 4.8066 25.8325 18.7118
O 29.2859 27.2249 28.189
H 1.02938 26.7554 27.4585
H 28.3583 26.8567 28.2521
O 24.7561 5.85292 10.7586
H 24.1662 6.02299 9.96928
H 24.5244 4.9684 11.1635
O 24.1864 22.2061 11.7468
H 24.5555 21.579 12.4327
H 23.9849 23.0871 12.1748
O 26.3514 26.5938 2.58669
H 25.7639 26.0284 2.00782
H 26.1086 26.453 3.54649
O 24.0005 10.6162 24.9438
H 24.0697 9.87548 24.2756
H 24.5888 11.3745 24.663
O 11.2327 17.4855 18.7757
H 11.2683 17.9332 17.8822
H 11.068 16.507 18.6518
O 25.1678 24.1107 1.42105
H 24.5727 23.4717 1.90849
H 24.8878 24.1618 29.2149
O 22.2873 19.2201 26.1763
H 22.5839 19.8863 25.4919
H 21.9945 18.3804 25.719
O 23.1196 19.9596 18.7366
H 22.4387 19.461 18.2001
H 23.7402 19.3092 19.1746
O 10.513 27.3525 18.1967
H 10.3857 28.2925 18.513
H 9.62039 26.9277 18.046
O 14.2717 18.8189 15.4673
H 14.3579 19.5134 14.7529
H 14.7438 19.1291 16.2924
O 2.88795 1.84116 13.5181
H 3.07942 1.81996 12.5368
H 3.61721 2.33725 13.9894
O 29.2373 15.0834 16.0131
H 29.0547 14.2325 16.5057
H 0.731993 14.8743 15.067
O 17.9359 27.465 9.5289
H 18.2511 26.7126 10.1073
H 17.8336 28.2911 10.083
O 27.5642 19.5994 21.6683
H 28.5279 19.3683 21.8021
H 27.4946 20.4751 21.1906
O 15.933 23.184 19.2653
H 16.8377 23.0889 19.6807
H 16.0331 23.4156 18.2977
O 15.4912 10.1332 23.3707
H 14.943 10.9095 23.682
H 16.081 9.82162 24.1158
O 8.05177 18.9979 1.26582
H 7.09034 18.9552 1.53756
H 8.47761 18.104 1.40529
O 12.9766 20.0233 5.9962
H 12.8528 19.0613 5.75291
H 13.0468 20.5715 5.1628
O 23.9237 6.51652 8.23359
H 24.7513 6.68146 7.69701
H 23.5508 5.61769 8.0033
O 10.4867 7.09674 26.3372
H 10.173 8.01514 26.0961
H 11.371 7.15739 26.8001
O 7.14951 28.7992 21.2876
H 6.69083 28.8052 22.1761
H 7.76441 28.0123 21.2352
O 18.1415 24.4947 13.4942
H 17.5629 23.7991 13.0683
H 18.2242 24.306 14.4727
O 21.818 17.7083 17.369
H 22.1312 16.7695 17.5128
H 21.0278 17.8894 17.9546
O 18.5371 12.4576 12.9727
H 19.2422 13.0662 13.3367
H 17.8382 12.9991 12.5054
O 12.6384 22.4382 10.0895
H 12.9819 21.615 10.5415
H 12.1397 22.1805 9.26184
O 27.5848 22.6252 1.28508
H 26.7594 23.1795 1.39233
H 28.3437 23.2095 0.997524
O 28.6491 28.4826 17.9026
H 28.4299 28.4653 16.9271
H 0.887217 28.5513 18.0205
O 16.0052 26.2213 7.74848
H 15.8195 25.5577 8.47315
H 16.7476 26.8275 8.03381
O 25.224 22.119 18.5307
H 24.6165 21.3606 18.2943
H 24.8395 22.9746 18.184
O 13.9592 24.7567 27.3258
H 13.8882 24.5032 28.2905
H 14.4622 24.048 26.8311
O 10.8867 5.87823 4.28767
H 10.6659 4.90309 4.26938
H 10.0491 6.40718 4.424
O 24.3394 19.6994 3.6359
H 24.6508 19.076 2.91871
H 25.0921 19.8824 4.2683
O 24.7722 21.6905 21.3296
H 24.9344 21.5806 20.349
H 24.7015 20.7901 21.7588
O 18.8927 12.0497 17.9457
H 18.2089 12.752 17.7478
H 19.1652 11.6008 17.0947
O 24.6997 4.01112 19.3931
H 25.0213 3.30457 20.0234
H 23.703 4.07503 19.4445
O 19.701 11.1932 15.5148
H 20.6317 10.9927 15.2091
H 19.1764 11.5782 14.7556
O 13.2687 23.0085 20.0204
H 12.8435 23.9099 19.9387
H 14.1735 23.027 19.5949
O 22.8776 1.42496 28.382
H 23.2505 0.787786 29.0566
H 21.8801 1.35547 28.3736
O 10.5082 27.2371 8.22651
H 9.99619 26.9066 9.01938
H 11.4748 27.3257 8.46723
O 19.1455 15.686 23.5363
H 18.4584 16.4033 23.6523
H 18.7321 14.8995 23.0775
O 5.02276 14.8568 2.0183
H 4.83437 15.5334 1.30652
H 4.91135 15.2793 2.91777
O 25.1275 14.7042 5.83064
H 25.2248 14.1197 5.02506
H 24.1679 14.7284 6.111
O 15.9566 16.5962 25.6088
H 16.2311 17.2638 24.9167
H 16.508 16.7249 26.4331
O 28.0599 21.1947 19.4831
H 27.4121 21.904 19.2051
H 28.3778 20.6984 18.6752
O 25.6578 2.42403 16.6248
H 25.8875 2.01353 17.5073
H 25.9669 3.37491 16.609
O 28.705 13.23 17.7711
H 28.309 13.6755 18.5741
H 28.9198 12.2782 17.99
O 1.30697 19.2235 3.21744
H 29.2167 19.3646 2.698
H 1.45667 20.0016 3.82753
O 28.6926 6.0063 18.351
H 0.73304 6.60121 18.4825
H 28.3862 5.65849 19.2371
O 11.5099 18.2285 9.50106
H 10.6353 18.2609 9.9849
H 11.5263 18.9358 8.79432
O 28.2509 28.3209 15.1838
H 28.2821 27.4495 14.6941
H 28.3647 29.0726 14.5341
O 21.2717 22.2499 7.76091
H 21.9063 21.7403 7.17993
H 20.784 21.6144 8.35941
O 19.6271 19.9794 26.8283
H 20.5893 19.7229 26.736
H 19.2558 20.2094 25.9287
O 1.0869 5.88233 11.9284
H 1.53352 5.35198 12.649
H 1.2396 6.85748 12.0889
O 18.9851 24.5235 16.3307
H 18.3026 25.2494 16.4163
H 19.7471 24.7076 16.9516
O 21.2668 10.0697 0.922961
H 21.2917 10.5908 1.77612
H 21.9843 10.4001 29.0622
O 13.1123 2.67578 3.00562
H 12.183 3.04439 3.03188
H 13.645 3.06071 3.75932
O 22.9857 10.7933 27.4384
H 23.46 10.9753 26.5771
H 22.0371 10.5394 27.2494
O 20.7141 24.4479 23.3289
H 21.5704 24.7644 23.737
H 19.9835 24.4928 24.0103
O 2.76089 25.8488 7.16789
H 3.27387 26.0038 6.32361
H 1.93575 25.3217 6.96453
O 16.864 26.7979 16.9205
H 16.2414 27.2096 17.586
H 17.2966 27.5185 16.3786
O 2.62838 15.4231 11.5473
H 2.86585 16.3032 11.9583
H 3.07986 14.687 12.0518
O 14.252 16.6149 3.12889
H 14.7975 15.778 3.17179
H 14.8491 17.3923 2.93103
O 14.6276 3.13765 5.41631
H 15.5375 2.9893 5.80375
H 14.3903 4.10671 5.48431
O 17.6286 2.61118 6.38781
H 18.1844 1.91397 6.84064
H 17.7915 3.49883 6.81857
C 23.0893 17.8696 9.38548
O 23.6991 16.5821 9.50963
H 24.6213 16.7052 9.3442
C 7.91505 17.7677 9.72383
O 8.96517 18.0552 10.6509
H 8.66883 18.0849 11.5478
C 14.525 28.1828 5.1512
O 14.036 29.2133 6.01371
H 14.0328 1.30929 5.59766
C 8.99005 4.92997 29.3497
O 8.70231 4.28909 1.84278
H 9.28148 3.54505 1.90591
C 3.2629 26.7595 21.9581
O 4.63619 26.3998 21.7861
H 4.91088 26.679 20.9261
C 20.9181 25.425 8.41409
O 22.1088 24.8754 7.84395
H 21.8166 23.9792 7.77699
C 27.4604 25.4394 17.4621
O 28.623 24.6081 17.5082
H 29.2086 25.0931 18.0693
C 18.4203 5.44727 17.264
O 17.0967 4.91225 17.1811
H 17.142 3.98165 17.023
C 5.34853 3.8454 27.5708
O 5.52759 2.73422 26.6887
H 5.46225 3.00495 25.7856
C 10.5669 28.4002 28.2022
O 9.52247 29.294 28.596
H 8.93869 29.381 27.8579
C 27.2258 19.7037 11.0957
O 27.6345 18.4464 10.5507
H 28.5781 18.4131 10.5902
C 25.8393 20.3143 15.0293
O 25.9435 21.0761 13.8235
H 26.7065 21.6297 13.8895
C 24.6141 12.968 16.1814
O 24.7109 13.52 17.4971
H 25.5999 13.4378 17.8068
C 5.3795 14.2276 13.6317
O 5.22665 15.5235 13.0467
H 5.98081 16.0069 13.3477
C 24.8629 4.50082 27.0704
O 25.6108 3.88434 28.1218
H 25.7839 3.00184 27.8316
C 24.9044 26.336 9.3248
O 24.0483 25.2148 9.55943
H 23.3889 25.0679 8.89873
C 5.91833 22.9645 27.9918
O 4.77742 23.8253 28.0401
H 4.06893 23.2482 28.2811
C 23.1381 2.91752 7.83004
O 22.6249 4.21614 7.5216
H 22.3495 4.22072 6.61764
C 28.8131 24.5012 3.85245
O 28.871 25.5607 2.89384
H 27.9796 25.8692 2.83681
C 17.3695 1.45543 18.0751
O 16.859 2.27948 17.0238
H 15.97 1.97921 16.9115
C 7.23327 6.45511 11.0134
O 6.44983 5.54253 11.7869
H 5.76189 5.21446 11.2282
C 20.6115 15.3927 10.848
O 21.1064 14.293 11.6165
H 20.7897 14.3735 12.5032
C 29.0568 27.7216 9.11686
O 27.9704 27.198 8.34846
H 27.9349 27.505 7.45544
C 20.5708 7.70678 8.04041
O 21.7437 8.52348 8.08817
H 22.4158 7.97609 7.71185
C 3.02453 1.21302 0.722214
O 2.56985 28.6292 0.951075
H 1.7623 28.4696 29.2394
C 21.0546 13.4236 26.5687
O 22.1592 14.2859 26.8538
H 22.165 15.0431 26.2885
C 8.27874 8.72435 0.775874
O 7.11982 8.4668 1.57304
H 6.33291 8.67391 1.09251
C 26.9463 10.7288 14.044
O 26.9544 10.2816 15.4023
H 26.1331 9.83516 15.5409
C 15.2149 14.1798 7.59389
O 14.5959 13.7164 6.391
H 14.1547 12.9061 6.59576
C 1.19399 6.69119 25.8125
O 28.7413 6.11597 25.301
H 28.618 5.26111 25.6845
C 7.18941 26.8081 3.08695
O 6.63556 26.743 4.40373
H 7.28927 26.7562 5.08602
C 17.5813 17.3746 28.5212
O 17.243 18.3174 27.5005
H 18.0699 18.735 27.3136
C 14.2914 27.6176 18.9881
O 15.609 27.4071 19.5023
H 15.6505 26.6459 20.0607
C 9.07226 10.3273 15.3963
O 9.31379 10.672 16.763
H 10.2444 10.6569 16.9267
C 6.96573 12.6144 28.8207
O 6.27178 12.5073 1.31391
H 5.83573 13.3173 1.53039
C 8.19441 0.879863 7.71217
O 9.53459 1.05151 8.18054
H 9.90207 28.9414 8.06245
C 3.20206 7.72009 18.6822
O 1.92005 7.29005 19.1474
H 1.64462 8.1085 19.5312
C 21.2653 18.3615 4.24286
O 20.7637 17.2977 5.05617
H 19.8277 17.2923 4.92578
C 2.9185 7.38383 28.6463
O 4.07284 6.67131 29.0987
H 4.73914 6.78173 28.4378
C 24.9912 7.30794 24.5581
O 26.2287 7.12768 23.8645
H 26.9262 6.8534 24.4401
C 22.6647 11.5278 13.4613
O 21.8627 10.5211 14.0843
H 21.4976 10.0928 13.3252
C 10.6152 21.3318 12.8977
O 9.27208 21.1852 13.366
H 8.82937 21.5458 12.613
C 12.9284 12.2389 20.8668
O 13.8535 11.7291 19.9028
H 13.3415 11.6662 19.1111
C 12.8879 12.8356 10.9419
O 13.6995 14.0013 11.1071
H 13.122 14.7405 11.221
C 1.15362 15.8426 19.8558
O 0.960211 17.1839 19.3993
H 1.78671 17.5776 19.165
C 25.4284 19.7694 27.646
O 24.2882 19.1154 28.2092
H 23.6154 19.0926 27.5461
C 7.73335 15.5494 5.43006
O 7.4278 14.2002 5.79225
H 7.61113 13.5315 5.15021
C 27.8999 10.1295 23.1189
O 28.19 9.04186 22.237
H 27.5869 8.33695 22.417
C 5.69602 19.0867 25.4214
O 4.90755 20.0297 24.6907
H 4.01641 19.8884 24.9717
C 13.3148 11.5188 25.5356
O 13.2749 12.2002 24.279
H 13.495 13.1017 24.4575
C 20.2817 27.6343 14.7734
O 18.8802 27.8364 14.9732
H 18.5658 28.2306 14.174
C 3.33502 29.0785 7.45836
O 2.63882 1.47019 7.95937
H 2.82388 2.12034 7.29901
C 17.2062 13.1903 26.4634
O 17.2941 11.8488 26.9508
H 18.0788 11.855 27.4773
C 18.3654 12.077 9.29632
O 18.8419 10.8449 8.74891
H 19.738 10.7253 9.02432
C 2.85348 12.0286 22.9013
O 3.43079 13.0015 22.0266
H 3.45585 12.5513 21.1961
C 10.6736 2.41869 5.25137
O 10.6019 3.30662 4.13274
H 10.2411 2.67373 3.53082
C 21.6119 7.82305 11.41
O 20.924 9.01308 11.8042
H 20.6134 9.39855 10.9992
C 20.2292 4.06461 13.2859
O 21.1418 4.39239 12.2349
H 20.6033 4.60085 11.4869
C 15.3792 3.0182 20.7683
O 14.1445 3.63744 20.3983
H 14.3186 4.46123 19.9692
C 3.93226 21.2861 17.5943
O 4.41049 22.4679 16.9466
H 4.34392 23.1842 17.5594
C 24.4292 20.4058 7.02384
O 23.2198 20.3895 6.26095
H 23.4782 19.9084 5.48971
C 28.5776 22.6714 25.4291
O 27.5172 21.8974 25.996
H 27.287 21.2246 25.3736
C 4.71853 2.2713 19.7912
O 5.61505 2.56333 20.8663
H 6.35839 1.99606 20.7297
C 3.57476 16.3969 23.3324
O 4.30754 15.169 23.3482
H 3.93471 14.5274 22.7631
C 26.4776 14.052 20.9114
O 27.1947 13.1263 20.0906
H 26.8958 12.2438 20.2483
C 26.0572 27.6194 24.6023
O 26.3764 28.267 25.8366
H 25.5731 28.7106 26.0623
C 9.46332 23.7392 25.6218
O 10.7649 23.909 26.1892
H 11.3207 24.2813 25.5218
C 10.7889 18.22 15.2804
O 11.812 18.1947 16.2793
H 12.5945 18.4051 15.7931
C 18.8917 18.9598 19.6296
O 19.728 17.9333 19.0894
H 19.1409 17.1965 19.016
C 7.15739 24.1642 16.4008
O 8.13624 25.2065 16.4201
H 8.03517 25.6424 17.2525
C 8.99805 2.03346 18.8421
O 10.1852 1.32659 19.2106
H 10.8123 1.95832 19.528
C 28.679 1.53314 21.3961
O 28.9835 29.229 22.3103
H 29.264 0.867221 23.1238
C 9.04191 3.90188 25.5434
O 9.24175 5.20472 24.9888
H 9.77818 5.69743 25.5909
C 18.8783 0.942076 27.7681
O 20.0069 0.797153 28.6342
H 20.3529 28.6703 28.6441
C 19.27 14.9386 15.3052
O 20.1685 14.3308 14.3734
H 21.0282 14.3028 14.7647
C 13.778 25.1759 13.4254
O 13.9789 24.3732 12.2591
H 13.5994 24.7978 11.505
C 11.12 16.3254 22.5935
O 10.7789 16.5087 23.9701
H 11.5456 16.8582 24.3979
C 22.0702 16.5044 21.865
O 23.1691 16.9947 22.6376
H 23.7313 17.5176 22.0866
C 22.9137 3.84576 23.5514
O 23.725 4.35074 22.4876
H 23.0824 4.8032 21.9628
C 21.9498 23.589 26.8218
O 22.4182 24.9373 26.7356
H 22.6934 25.1403 25.8547
C 21.7493 12.5225 22.6513
O 20.658 11.9699 21.9106
H 20.6919 11.0292 21.9941
C 7.22929 12.3031 22.8905
O 8.04102 12.7657 23.9731
H 8.90493 12.7778 23.5903
C 0.869287 19.1034 8.04216
O 1.74772 20.0514 8.65432
H 1.31612 20.8596 8.88569
C 17.3456 25.7975 24.8252
O 18.5882 25.1834 25.1773
H 18.6658 24.9178 26.0808
C 10.1464 13.9671 26.244
O 11.0977 14.9943 26.535
H 10.6566 15.8296 26.5084
C 22.2951 11.7549 9.28314
O 21.32 10.7376 9.52628
H 21.5071 10.0332 8.92471
C 12.1866 14.8232 15.5271
O 12.2472 14.9267 16.952
H 12.3359 15.8547 17.1069
C 3.77293 13.8334 17.2706
O 2.76388 13.0433 17.905
H 1.93314 13.3485 17.5737
C 3.84742 12.6302 4.78
O 4.99481 12.5131 5.62539
H 5.71941 12.8969 5.15568
C 22.7911 10.4376 18.7428
O 24.0948 10.3048 18.1703
H 24.0201 9.94368 17.3002
C 9.28989 10.6762 20.573
O 10.3364 10.037 21.3086
H 9.97297 9.39173 21.8956
C 3.45441 22.5709 25.4873
O 3.19784 23.9732 25.3743
H 4.07536 24.3228 25.4012
C 3.72296 24.8362 10.3485
O 4.29647 25.513 9.22689
H 3.64039 25.5066 8.54679
C 10.0454 13.1421 1.8065
O 10.2423 14.3043 0.996952
H 11.0889 14.2147 29.3394
C 28.9081 14.5964 23.8953
O 28.1762 13.5386 24.5202
H 28.8043 13.0961 25.0704
C 12.7847 6.97826 12.1232
O 12.78 8.40368 12.0089
H 11.8852 8.56558 11.7519
C 18.7806 21.1805 14.3203
O 18.3753 20.1976 15.2766
H 19.1797 19.8315 15.6114
C 21.3844 20.6588 11.0128
O 20.3133 20.6939 10.0661
H 19.7791 19.916 10.1177
C 13.9666 29.2463 11.6704
O 13.912 1.90845 11.4686
H 14.2678 2.15537 10.6287
C 6.68118 28.0673 15.8243
O 5.51182 28.0763 16.6474
H 4.7794 28.4266 16.1637
C 17.3718 1.6942 13.2704
O 17.8359 29.2183 12.7044
H 17.7649 29.323 11.7679
C 16.0175 13.5211 16.3103
O 16.7684 13.9889 17.4337
H 16.1896 14.701 17.6594
C 9.60467 25.3275 21.6207
O 9.23094 26.5943 21.0727
H 9.80197 27.2932 21.3529
C 25.6445 9.49417 10.5677
O 26.4289 8.3006 10.497
H 25.8926 7.53297 10.6241
C 3.69491 14.0659 27.7447
O 2.84693 12.9583 28.0597
H 2.10044 13.3691 28.4684
C 7.47459 19.3617 17.695
O 7.77615 18.0276 18.1125
H 7.56121 17.9194 19.0264
C 28.1354 11.891 5.57128
O 28.4765 13.2289 5.94327
H 27.9184 13.4363 6.67711
C 2.26204 1.64423 25.2114
O 1.05393 2.19648 24.6818
H 29.3571 2.52773 25.4443
C 2.90314 27.4761 14.5327
O 3.29762 28.57 15.3649
H 3.25613 29.3792 14.8785
C 19.7627 3.47532 9.33242
O 20.7217 4.50739 9.5775
H 21.3833 4.58602 8.90736
C 14.6701 16.594 20.3241
O 15.2311 16.6373 19.0095
H 15.2316 17.5355 18.7158
C 9.80141 29.1553 23.2719
O 10.4198 28.7044 22.0639
H 10.9361 0.724709 21.8929
C 25.5878 28.6715 19.3855
O 26.3318 1.01657 18.8501
H 27.1962 0.670936 18.6877
C 9.70502 22.2052 18.9369
O 10.8682 21.4621 19.3107
H 11.5247 22.1089 19.5196
C 11.9846 10.9368 7.69143
O 13.2251 11.3644 7.12275
H 13.7814 10.6482 7.38868
C 16.078 7.14157 3.05922
O 16.5563 7.97944 2.00372
H 17.3139 7.55871 1.62674
C 7.49152 5.22075 21.6603
O 8.83475 5.54407 22.0292
H 9.02567 5.12648 22.8552
C 10.5669 3.82518 10.0549
O 9.85109 2.65211 10.4503
H 9.65039 2.15795 9.67021
C 16.8403 17.5409 6.13071
O 17.4611 18.0179 4.93407
H 17.6586 17.2462 4.42566
C 6.54266 1.61853 2.32356
O 6.12198 2.98165 2.2244
H 6.91891 3.45673 2.04492
C 1.08896 1.25326 4.46814
O 0.848224 28.6019 4.59549
H 1.68459 28.2489 4.33308
C 19.6379 7.58464 3.93656
O 21.0203 7.91543 3.78052
H 21.0994 8.06345 2.85054
C 4.37626 17.1509 17.6923
O 3.52642 17.938 18.5309
H 4.02291 18.0155 19.3313
C 28.1221 6.53272 28.8772
O 28.6996 5.27037 28.534
H 29.3187 4.96774 29.1807
C 6.16749 28.5341 12.1072
O 5.80574 28.8885 10.7699
H 5.15557 0.819892 10.8204
C 21.8545 6.80427 19.116
O 21.8438 5.8106 20.1443
H 21.8857 4.97621 19.7026
C 10.1559 18.6113 3.77842
O 10.2495 19.8299 3.03604
H 9.51682 19.6798 2.45839
C 27.4481 17.6419 5.30733
O 26.7924 17.1473 6.47794
H 26.2026 16.4518 6.22984
C 13.7366 27.4271 22.7388
O 14.3151 26.1283 22.8921
H 14.8335 25.9348 22.1261
C 1.74892 22.748 21.9262
O 1.20477 22.964 20.6216
H 29.4735 22.2032 20.3386
C 4.2855 23.5587 3.07322
O 3.13212 22.7393 2.86519
H 2.95404 22.7364 1.93713
C 18.8088 25.0903 28.8526
O 18.8795 24.3601 27.6251
H 19.3419 23.6102 27.9671
C 4.6078 4.28606 23.5565
O 5.42997 3.19491 23.9788
H 5.81025 2.85735 23.1823
C 25.9813 16.6896 24.8256
O 25.1797 17.8299 24.5064
H 24.4622 17.5056 23.9838
C 4.86311 7.97385 23.1315
O 6.1198 8.44702 22.6399
H 5.94764 8.82977 21.7932
C 26.1062 15.3589 13.36
O 24.6788 15.4449 13.3522
H 24.4053 15.1627 12.4928
C 5.86841 26.4526 25.0097
O 5.17763 25.4484 24.2619
H 5.14441 25.8137 23.391
C 11.2745 10.7322 4.1991
O 12.6971 10.8705 4.15329
H 12.9749 11.0448 5.03955
C 1.46381 12.2095 13.8467
O 2.855 12.1903 14.177
H 3.15821 11.3059 14.0397
C 5.18502 3.05683 16.1872
O 5.09225 2.60159 14.8348
H 5.91078 2.81203 14.412
C 10.201 24.9313 13.6248
O 10.8257 25.5564 14.749
H 10.1325 25.6697 15.3812
C 16.2565 7.77461 26.4504
O 16.545 8.05988 25.0791
H 16.9352 7.26799 24.742
C 20.1829 29.0009 6.86048
O 18.9707 29.329 7.54445
H 18.6613 28.5431 7.96833
C 8.14583 7.44703 18.2104
O 9.37954 6.81202 17.8645
H 9.65354 6.25098 18.5739
C 26.5252 2.16666 10.026
O 27.0284 1.95644 11.3479
H 26.3507 1.67197 11.9418
C 12.3519 16.426 6.01596
O 12.9408 17.5445 5.34743
H 13.197 17.2211 4.49725
C 6.0133 23.3738 7.63458
O 7.15543 22.7453 7.04687
H 6.99494 21.8144 7.02231
C 3.42816 5.69304 14.9051
O 2.28045 5.13562 14.2594
H 1.76392 4.76797 14.9601
C 29.1934 11.6584 9.68818
O 28.4937 11.1927 10.8451
H 27.6095 11.5155 10.7616
C 2.0535 10.1731 2.81389
O 2.86284 8.9954 2.76053
H 3.68348 9.25586 2.37101
C 16.6694 6.22409 6.66489
O 17.4042 6.97515 7.63487
H 17.399 7.84179 7.25812
C 7.65842 23.1476 11.3096
O 7.69117 21.7185 11.274
H 6.93613 21.3739 10.8221
C 13.3446 29.2742 16.3683
O 14.5264 1.32475 16.3098
H 14.3678 1.86211 15.5488
C 29.123 2.89851 16.5942
O 0.763241 4.24027 16.2937
H 29.0162 4.77433 16.8923
C 26.5544 24.6307 21.6917
O 25.1707 24.2874 21.8031
H 25.1275 23.3993 21.4829
C 22.3223 18.8125 14.1837
O 21.2228 19.0538 15.0656
H 21.4105 18.5568 15.8472
C 21.0626 6.98621 14.8926
O 19.7848 7.50985 15.2639
H 19.9337 8.42707 15.0921
C 17.3209 6.81332 21.3417
O 16.6522 6.02376 22.3289
H 15.8901 6.53881 22.5454
C 22.9153 23.1496 3.98477
O 23.8621 22.4663 3.15918
H 23.8871 21.5737 3.46844
C 29.3939 19.3754 16.2601
O 29.2158 20.4937 17.1334
H 29.0597 21.2727 16.6218
C 18.1216 19.0157 11.6517
O 18.7566 18.665 10.4194
H 18.1171 18.1511 9.9503
C 17.3229 10.2058 5.56725
O 17.2857 9.43119 6.76869
H 17.9888 9.83053 7.25774
C 18.8522 25.5717 3.77369
O 17.4571 25.6037 3.46123
H 16.9479 25.1285 4.0999
C 9.7067 21.5151 28.8628
O 9.8751 22.9071 29.1437
H 10.0662 23.3365 28.3239
C 17.2801 13.5493 21.2265
O 18.0771 13.5799 22.4134
H 18.7157 12.8834 22.4196
C 13.0823 4.50756 23.7404
O 12.6663 3.23354 24.2391
H 12.3117 3.44929 25.0881
C 22.5867 7.11178 29.2341
O 21.3996 7.54346 1.15191
H 21.278 8.46158 0.964099
C 25.8819 23.6784 6.75782
O 27.1268 22.983 6.86446
H 27.1057 22.3042 6.20728
C 1.77414 14.8713 8.1477
O 1.96266 15.9698 9.04368
H 2.29166 15.6157 9.85573
C 3.88046 18.5063 14.136
O 3.66473 17.7138 12.9654
H 4.15668 16.9593 13.2511
C 20.7867 3.78125 4.57707
O 21.9682 4.42205 5.06527
H 22.4613 4.91138 4.42463
C 1.48704 18.9598 24.7684
O 2.31233 19.4416 25.8322
H 2.50463 18.7691 26.4677
C 3.5074 3.75561 5.48526
O 3.38165 3.72208 6.90933
H 3.08811 4.53508 7.29129
C 18.1291 23.0007 9.07034
O 17.8779 21.8534 9.88614
H 18.7296 21.4682 10.0249
C 22.0054 26.6636 1.0546
O 21.6512 27.2906 28.5717
H 22.0025 26.701 27.9221
C 0.742098 7.93987 15.7147
O 1.36513 8.32012 14.485
H 0.720806 8.45346 13.8067
C 6.67128 15.9737 20.8099
O 6.82562 17.3932 20.7333
H 7.55388 17.7458 21.2215
C 26.0727 10.0172 27.593
O 25.2356 10.104 28.7492
H 24.3792 10.3679 28.4495
C 15.5577 10.0063 13.4819
O 14.2521 10.3115 12.9847
H 13.8663 9.48488 12.738
C 1.9119 21.306 28.8461
O 2.65141 22.5188 29.0108
H 2.02522 23.2242 29.0683
C 10.7595 24.1753 7.07192
O 10.1148 22.9002 7.13027
H 9.20216 22.9667 7.36616
C 24.3821 26.7345 5.80458
O 25.6275 26.3564 5.21231
H 26.2163 27.033 5.50996
C 5.42682 14.8896 9.28382
O 5.74027 15.1681 7.91667
H 6.10959 14.4414 7.4386
C 3.70078 10.687 8.17881
O 4.9931 10.6391 7.56847
H 4.97351 11.2765 6.87108
C 21.7062 15.0561 7.27435
O 22.5705 15.3426 6.17173
H 22.0911 15.8965 5.57471
C 19.5694 10.357 24.9786
O 20.8501 10.0211 25.519
H 21.0262 9.13307 25.2481
C 28.0204 13.5046 28.9001
O 29.3443 13.8762 29.2926
H 29.3241 14.0646 1.46591
C 15.4975 23.7069 1.41443
O 14.1142 23.816 1.06887
H 13.5433 23.6289 1.79835
C 15.3139 21.0714 22.6649
O 14.89 19.781 23.1123
H 13.9455 19.8098 23.1191
C 16.4792 19.7436 2.16997
O 15.8475 18.5919 2.7354
H 16.2686 18.5255 3.57877
C 19.1099 21.5083 4.885
O 17.8771 20.7855 4.93632
H 18.0099 19.8918 5.21308
C 26.0951 8.18264 2.97193
O 25.0439 9.01899 2.48148
H 25.2201 9.09253 1.55596
C 16.8694 2.75692 2.73019
O 18.0616 2.43339 3.45055
H 17.7798 2.24834 4.33335
C 24.6255 1.57657 4.34458
O 25.9729 1.68756 4.81066
H 26.4053 2.10846 4.0834
C 13.7466 4.55869 8.33157
O 14.7446 3.74836 8.95795
H 14.6576 2.8859 8.58161
C 23.3774 28.6866 22.7358
O 22.9227 28.5561 24.0853
H 22.2466 29.2071 24.195
C 20.9017 12.8771 3.52551
O 21.5319 11.6627 3.10942
H 22.3441 11.608 3.58945
C 13.1743 10.8418 16.6246
O 12.0845 10.9584 17.5432
H 12.1044 10.0955 17.9279
C 16.4477 15.3478 12.0569
O 16.3985 13.9189 12.0859
H 15.5627 13.7127 11.6962
C 25.5653 7.53691 19.9432
O 25.256 8.17754 21.1837
H 25.3957 7.59153 21.9118
C 12.917 17.0512 12.4737
O 12.3153 16.3929 11.3558
H 12.0301 17.0396 10.7286
C 4.76385 19.7175 2.02596
O 5.60517 18.6025 2.33209
H 5.2714 18.3605 3.18244
C 0.84786 10.5685 26.0768
O 1.05893 11.9758 26.2179
H 1.39878 12.1157 27.0885
C 10.0698 28.824 13.3927
O 9.66435 28.4952 12.0614
H 9.74968 29.2382 11.4838
C 4.74247 7.53805 6.00354
O 5.73296 8.55822 6.15549
H 5.49599 9.16794 6.83748
C 27.9816 17.0601 28.5715
O 28.9795 17.5973 0.691049
H 28.7058 18.4136 1.08062
C 19.809 27.763 23.0742
O 19.2834 28.1832 24.3359
H 19.4721 27.4871 24.9464
C 27.7165 26.4022 12.3071
O 27.9434 26.0089 13.6631
H 28.4284 25.2071 13.5407
C 15.0468 9.43416 9.36592
O 14.9156 9.43189 7.94195
H 15.8019 9.5032 7.62197
C 29.3615 6.84151 4.13673
O 1.05198 6.87246 2.77743
H 1.73862 7.51918 2.71992
C 11.0934 24.513 3.04335
O 11.8028 23.5362 2.27698
H 11.1626 23.2291 1.65341
C 11.639 5.46706 20.0012
O 10.2491 5.14747 19.8961
H 9.95017 5.22627 20.7891
C 4.31341 22.1868 13.5882
O 3.58131 23.1505 14.3499
H 3.7921 22.9527 15.2496
C 21.4076 29.0652 10.9883
O 22.7133 28.6145 11.3582
H 22.6221 27.7065 11.6035
C 7.84713 22.0096 3.68235
O 7.75231 23.436 3.64669
H 7.99953 23.7661 4.49696
C 24.9053 10.8464 5.55262
O 24.6479 11.1963 4.1902
H 24.81 10.4734 3.60358
C 9.08125 13.7365 14.3077
O 8.67413 14.5922 13.2368
H 8.39236 15.4148 13.6068
C 14.2514 24.48 5.31735
O 15.5735 25.0228 5.27068
H 15.7438 25.4248 6.10876
C 13.7431 20.2044 18.6491
O 14.9947 20.0149 17.9838
H 15.438 20.8481 18.0303
C 12.3481 22.8051 16.4192
O 12.5616 24.218 16.3624
H 12.0923 24.4959 15.5907
C 21.725 17.072 29.0743
O 22.0914 15.6946 29.1905
H 21.967 15.1728 28.4125
C 9.66576 10.4995 11.9081
O 10.4583 9.46715 11.3156
H 10.0577 9.34035 10.4692
C 29.4286 5.50391 21.7
O 28.2709 5.07303 20.9797
H 27.7449 4.46044 21.4707
C 12.6952 18.8655 0.831799
O 13.4412 18.9272 28.3659
H 12.8569 19.2739 27.7091
C 21.01 21.07 0.830281
O 20.2424 21.7777 28.6056
H 19.8535 21.0993 28.0749
C 16.1876 6.67774 14.2595
O 15.3724 5.96255 15.1916
H 15.8866 5.70624 15.9418
C 24.3534 4.39054 2.39038
O 25.4399 5.11729 1.81039
H 25.524 4.74444 0.946138
C 20.0418 26.4678 18.7605
O 21.2966 25.8024 18.5946
H 21.6519 25.7085 19.4653
C 6.91654 6.94455 26.8897
O 5.62028 7.47291 27.182
H 5.42704 8.16576 26.5691
C 24.4196 13.9743 2.47639
O 24.0088 15.2977 2.12304
H 23.4054 15.3189 1.39605
C 18.1121 7.56524 11.1459
O 17.7501 6.34578 10.4926
H 17.9182 6.45658 9.56934
C 16.2435 8.87527 17.303
O 16.0588 8.29774 18.5981
H 16.0827 8.96231 19.2695
C 21.778 20.7957 23.0978
O 22.7917 20.7974 24.1063
H 23.5468 21.3002 23.8416
C 26.7137 3.7013 23.5424
O 26.3441 3.76568 22.1624
H 25.4566 4.08589 22.2154
C 27.8761 3.95561 6.81519
O 27.3155 4.74351 5.76167
H 27.4761 4.34436 4.92028
C 20.9179 2.6818 19.8202
O 22.0481 3.23137 19.1379
H 22.2545 2.73649 18.3598
C 6.21456 19.8159 6.54713
O 5.11116 20.0529 7.42531
H 4.6107 19.2518 7.45209
C 19.9415 6.80644 25.731
O 20.9953 7.45063 25.0103
H 21.0168 7.10183 24.1323
C 14.1823 0.99758 27.5173
O 15.0626 29.2637 26.5007
H 15.4131 28.4241 26.7564
C 4.0893 9.4393 12.5412
O 3.69297 9.49466 13.914
H 2.8761 9.01998 13.9345
C 26.8764 4.73946 13.4798
O 25.9122 5.77055 13.2518
H 25.7597 5.98837 12.3449
C 22.2147 23.5645 14.5409
O 23.2561 24.1564 13.7598
H 23.9776 24.3769 14.3288
C 1.17886 26.484 24.7403
O 1.84366 26.0581 25.9326
H 2.4563 25.3847 25.6793
C 13.0941 7.9151 22.4199
O 14.1914 7.54787 23.26
H 14.5077 8.3457 23.6556
C 11.7025 10.0104 28.8202
O 12.8339 9.38424 28.2097
H 13.5945 9.94428 28.2386
C 12.0966 5.68425 15.9998
O 13.143 6.5037 16.5275
H 13.909 6.25192 16.0347
C 15.6651 27.9755 1.81879
O 16.8507 27.3964 1.26759
H 17.2627 26.9669 2.00164
C 18.2479 21.9226 24.0917
O 17.7745 20.7795 24.8087
H 16.8498 20.9408 24.9181
C 6.38884 28.5218 27.971
O 7.18916 0.690345 27.2253
H 6.60598 1.42611 27.1177
C 8.64055 3.13818 13.9624
O 7.32291 3.50628 13.5462
H 7.43486 4.28489 13.0225
1500
 Atoms. Timestep: 60000
O 9.15514 16.6135 24.283
H 9.95026 16.4106 24.8545
H 8.31835 16.4243 24.7968
O 13.9734 10.1233 21.3684
H 13.1065 10.6193 21.4186
H 14.6548 10.5848 21.9365
O 16.0049 20.9105 26.9042
H 15.8666 20.5045 27.8076
H 16.1209 21.8993 26.9974
O 9.13075 5.29601 7.69367
H 9.1897 6.27216 7.90264
H 9.57207 4.77196 8.4221
O 17.6195 24.8758 20.2078
H 18.0463 25.329 20.9903
H 18.0118 23.9627 20.0967
O 17.9546 22.8869 17.5658
H 18.1678 22.6728 18.519
H 17.0505 22.5258 17.3372
O 5.52977 15.112 16.5325
H 5.12362 14.7965 15.6749
H 6.04902 14.3661 16.9496
O 23.8857 10.4129 25.4019
H 23.4163 11.2477 25.1143
H 24.1409 9.87928 24.5956
O 29.0666 16.8154 8.34532
H 28.8076 17.7281 8.66149
H 0.61715 16.2664 9.12422
O 12.4395 5.06903 22.4783
H 13.2521 4.77617 21.9744
H 12.4281 6.06697 22.5414
O 5.94437 18.1599 12.0505
H 6.0857 18.5838 12.9451
H 5.18241 18.6101 11.5849
O 29.2741 22.2381 2.45882
H 28.8598 22.8306 3.14968
H 1.19983 22.7569 1.93827
O 16.5914 28.9173 12.4395
H 16.2061 1.08739 12.459
H 15.8498 28.2467 12.4225
O 14.095 4.51766 25.4457
H 13.5547 4.58228 24.6067
H 13.4985 4.65014 26.2373
O 10.9385 10.8153 22.0387
H 10.4524 11.5175 22.5587
H 10.2871 10.3063 21.476
O 16.8191 20.7412 12.6074
H 16.831 21.248 11.7455
H 16.8089 21.385 13.3726
O 15.2034 13.9453 26.1839
H 16.1387 14.2914 26.2587
H 14.7339 14.4129 25.4349
O 11.7202 26.3319 17.399
H 10.8539 26.3247 17.8983
H 11.6091 26.8419 16.546
O 28.2615 27.0931 4.06249
H 27.6764 27.8834 4.24428
H 29.1785 27.4068 3.81633
O 26.0615 18.2981 8.71896
H 26.3396 18.4841 7.77661
H 26.8253 18.4884 9.3357
O 11.3678 10.8199 15.3633
H 10.974 10.0004 15.7796
H 12.3367 10.6636 15.1714
O 26.2423 21.4168 10.7739
H 25.9569 21.1635 11.6983
H 26.8702 20.7248 10.4176
O 16.467 14.6197 22.6247
H 15.4852 14.4476 22.5441
H 16.6167 15.452 23.1584
O 22.5434 4.52909 13.4066
H 23.5257 4.46502 13.5825
H 22.1234 3.62992 13.5295
O 22.9636 29.2746 27.4122
H 21.9904 29.0448 27.4042
H 23.28 29.3524 28.3576
O 26.5904 18.8313 5.78934
H 26.0784 19.656 5.5487
H 26.9448 18.4044 4.9574
O 2.98774 6.85367 3.61425
H 3.2016 6.07174 3.02871
H 2.96726 7.68746 3.06255
O 5.51242 3.07179 14.3259
H 4.74076 3.17302 14.9538
H 5.2154 2.57559 13.5101
O 7.63391 26.0807 9.30732
H 8.37641 26.2 8.64817
H 6.79867 25.8175 8.82451
O 11.2117 18.8495 21.3078
H 11.2428 19.0466 20.3279
H 11.7452 19.5353 21.8028
O 1.11447 12.869 22.403
H 29.0756 12.8771 21.7916
H 0.889199 12.3589 23.233
O 1.24848 26.3953 20.1423
H 1.97794 26.8424 20.6601
H 29.1718 26.9526 20.1856
O 19.8058 12.3822 19.3815
H 19.0262 11.7729 19.2362
H 19.5 13.2071 19.8569
O 9.29806 7.03741 26.0764
H 8.99823 7.96622 25.8586
H 8.58584 6.38684 25.8127
O 25.5134 17.4299 27.9597
H 25.1054 17.7 27.0876
H 24.8372 16.9344 28.5049
O 16.5574 8.9445 1.01225
H 16.5757 8.68569 28.799
H 16.2071 8.18134 1.55527
O 13.4105 4.36421 2.17915
H 12.944 4.03553 3.00035
H 14.31 4.72339 2.42798
O 23.4557 5.38044 6.13771
H 24.032 5.91124 6.7591
H 23.5552 5.73352 5.20742
O 17.1622 5.59986 27.8049
H 17.0893 5.2461 26.8724
H 17.8807 5.1052 28.2938
O 8.44596 11.5619 8.50603
H 7.99557 11.5389 7.6135
H 8.40352 12.4896 8.87691
O 3.87841 13.0331 21.9692
H 3.00579 12.7134 22.3384
H 4.41055 12.2504 21.6464
O 12.8039 5.11728 27.9567
H 13.2255 4.66355 28.7418
H 12.0508 5.69537 28.2707
O 18.1658 3.75764 21.8909
H 18.2971 4.73989 22.0249
H 19.0464 3.32792 21.6909
O 22.3826 2.10648 2.03892
H 22.9213 1.36489 1.6391
H 22.9491 2.92717 2.11357
O 1.96295 26.3217 1.27901
H 2.43836 25.4535 1.1371
H 1.43524 26.5504 29.2134
O 26.4666 28.1936 0.7437
H 27.1879 28.4229 28.8426
H 26.6304 27.2791 1.11372
O 14.135 18.8245 11.6054
H 14.6073 19.5539 12.1002
H 14.0377 19.0826 10.6441
O 26.686 7.30129 16.0923
H 25.9553 7.74537 15.5737
H 27.0332 6.51864 15.5756
O 3.67335 19.2055 10.8941
H 3.76797 20.1233 11.2798
H 3.2654 19.2672 9.98316
O 26.8625 5.38817 27.2184
H 26.7563 4.54901 27.7518
H 27.1938 6.1211 27.8125
O 16.5982 25.2176 13.7605
H 16.0265 25.8533 13.2417
H 17.1392 25.7263 14.4302
O 2.66331 11.1894 6.17247
H 2.43193 12.1573 6.07491
H 3.16168 10.8824 5.36165
O 26.1469 15.843 19.4441
H 25.7457 16.7518 19.5588
H 26.4918 15.7464 18.5104
O 19.572 9.54571 23.6343
H 19.5977 8.54607 23.6274
H 19.5651 9.88543 22.6938
O 18.3163 19.1559 25.8693
H 18.6842 18.8913 26.7607
H 17.5277 19.7569 25.9993
O 23.169 22.8405 12.3235
H 23.6781 23.6772 12.122
H 23.26 22.2026 11.5587
O 16.3739 20.0235 0.682553
H 17.3667 20.1427 0.673859
H 16.0363 20.1077 1.62006
O 26.5364 10.8036 20.5254
H 26.3804 9.96063 21.0402
H 26.7955 10.5776 19.5863
O 14.5817 13.5227 4.09616
H 14.5362 12.699 3.53092
H 13.9507 13.4334 4.86678
O 9.42973 7.9219 8.31606
H 9.90736 8.39679 9.05521
H 9.07565 8.59182 7.6635
O 13.9451 18.8654 23.6487
H 13.7274 19.6257 23.0367
H 13.3316 18.0988 23.4592
O 7.52363 9.58764 22.5015
H 6.6555 9.47101 22.019
H 8.20693 9.95923 21.873
O 15.8886 2.27557 21.5332
H 16.665 2.89938 21.6229
H 16.2233 1.33753 21.4435
O 4.18092 26.8951 5.54916
H 4.7203 26.7644 4.71732
H 3.45566 27.5612 5.37487
O 12.4758 3.5258 4.69856
H 11.6158 3.53465 5.20873
H 13.2256 3.79124 5.30463
O 12.0159 2.59139 11.9124
H 11.3166 2.72007 12.6155
H 11.7737 3.12237 11.1003
O 4.61637 23.6289 19.1279
H 4.54379 22.7671 18.6257
H 5.21259 23.5033 19.9208
O 5.29165 17.8266 16.3771
H 4.65619 17.6219 17.1217
H 5.64775 16.9723 15.9985
O 1.85158 17.582 1.70806
H 2.45031 17.835 0.948095
H 1.14354 18.2791 1.82085
O 26.3325 2.54489 28.3642
H 25.6175 2.38755 27.683
H 27.0273 1.82957 28.2894
O 2.42465 16.0164 6.94066
H 3.15489 16.0399 7.62344
H 1.55471 16.2502 7.37486
O 7.27592 12.1107 5.96526
H 7.78494 11.2799 5.7401
H 6.5152 12.2193 5.32532
O 26.4947 26.6176 11.5181
H 26.7193 27.2365 10.7655
H 26.2662 25.7158 11.1513
O 3.29475 17.1594 28.0299
H 2.82775 16.4046 27.5692
H 4.25672 16.9227 28.1661
O 23.81 15.6053 29.2564
H 23.3227 15.8642 1.33786
H 23.2765 14.9229 28.7568
O 13.7346 20.2064 6.62755
H 13.3437 20.4122 5.73042
H 14.2952 19.3806 6.5654
O 19.4912 4.39069 29.0787
H 20.3186 4.85787 29.3904
H 19.7053 3.83332 28.2765
O 17.1957 22.7397 14.3045
H 18.117 23.0061 14.5877
H 16.69 23.5506 14.0098
O 8.10212 3.98495 1.12212
H 8.53463 4.28057 1.9739
H 8.79114 3.93201 29.1518
O 21.7057 11.538 9.57718
H 22.2363 10.7112 9.3908
H 22.2986 12.3394 9.49828
O 15.4787 15.2085 15.4849
H 15.0299 14.6745 14.7684
H 16.3401 14.7684 15.7386
O 0.950731 10.0884 10.367
H 1.44223 9.68186 9.59678
H 29.2803 10.9468 10.0767
O 16.8809 4.36835 25.4612
H 15.8894 4.33546 25.5874
H 17.195 3.50649 25.0631
O 28.9313 25.4193 15.447
H 28.4244 26.0473 14.8566
H 28.288 24.8839 15.9942
O 17.3237 16.8298 24.0117
H 17.2353 17.8114 24.1807
H 17.4195 16.3488 24.8832
O 29.0948 21.329 8.75121
H 28.8775 21.022 7.82464
H 29.5522 22.2173 8.70934
O 10.2461 11.3134 25.0664
H 11.1548 10.9416 24.8768
H 10.1353 12.1838 24.5867
O 0.989892 5.48281 5.25208
H 1.53253 5.91858 4.53399
H 1.60074 5.09092 5.94003
O 19.3648 6.75651 19.7122
H 19.3042 6.69288 20.7083
H 18.4953 7.08801 19.3459
O 10.603 21.5933 3.13145
H 10.2063 21.966 2.29251
H 9.99622 20.891 3.50372
O 27.2059 5.73566 5.48456
H 26.7081 5.55933 4.63539
H 28.18 5.5594 5.34264
O 25.3373 11.6535 9.19541
H 24.7499 10.8477 9.12103
H 24.8066 12.4209 9.55505
O 24.0878 17.3129 25.4118
H 23.6833 16.4293 25.6479
H 24.3167 17.3253 24.4384
O 4.69191 20.9664 17.9753
H 4.60491 20.629 17.038
H 5.61238 20.7732 18.315
O 8.59679 15.5611 27.7903
H 9.06657 16.3475 27.3892
H 8.94405 14.7192 27.3773
O 25.9472 8.24522 21.2302
H 26.2187 7.90139 20.3313
H 26.3234 7.6517 21.9417
O 25.1079 21.3444 21.3858
H 26.0293 21.6479 21.1433
H 25.0686 21.1483 22.3656
O 0.94267 26.5248 27.5283
H 1.27961 26.2827 26.6184
H 29.0598 25.8212 27.8465
O 13.2095 18.646 26.2712
H 14.0292 18.4711 26.8166
H 13.4599 18.7136 25.3054
O 3.22513 25.8082 18.5217
H 2.40047 25.9026 19.0794
H 3.58099 24.8777 18.6078
O 13.6566 29.4386 4.38607
H 14.6036 0.938549 4.18734
H 13.144 1.50117 4.65609
O 12.7328 21.0402 22.0555
H 12.5392 21.7231 22.7599
H 13.128 21.4902 21.2547
O 13.0954 19.7044 9.18441
H 12.587 20.4956 9.52425
H 13.2987 19.8308 8.2135
O 0.98166 15.5076 3.35835
H 28.7735 15.3443 3.13391
H 1.35489 16.2006 2.74154
O 2.03606 3.45102 9.00148
H 2.33153 3.75947 8.09729
H 2.03509 4.22556 9.63401
O 23.3679 13.6615 9.22979
H 24.0058 14.4158 9.38484
H 22.8545 13.8269 8.38768
O 16.2049 26.5017 26.6901
H 15.5133 26.3977 25.9753
H 15.8461 27.0853 27.4186
O 27.5415 24.8703 27.8834
H 26.88 25.4864 27.4558
H 27.4771 24.9504 28.8781
O 1.87324 27.186 16.635
H 2.40314 26.8263 17.403
H 1.2708 26.4703 16.2816
O 3.08913 9.20412 27.7463
H 3.97745 8.97096 27.3506
H 3.14311 9.14767 28.7432
O 1.86098 6.06312 15.2848
H 2.20526 6.91059 15.6889
H 1.82128 6.16013 14.2903
O 9.99215 28.3917 27.6543
H 9.32632 27.6462 27.6245
H 10.4458 28.4691 26.7665
O 15.9946 14.0987 1.89086
H 15.3492 14.0442 2.65279
H 16.2638 13.1758 1.61546
O 18.136 1.99869 24.0478
H 17.9113 1.09072 23.6941
H 18.1447 2.65687 23.295
O 23.7338 14.3611 19.9826
H 23.3689 13.5084 19.6087
H 24.654 14.5159 19.6231
O 16.0789 20.8826 16.4059
H 16.2378 21.3586 15.541
H 16.4941 19.9736 16.3672
O 24.4824 12.8989 6.35103
H 23.5631 13.2916 6.32265
H 24.7004 12.6282 7.28869
O 18.3075 2.28852 2.04414
H 17.7245 2.72549 2.72909
H 18.8765 2.98074 1.60021
O 14.2218 25.7287 25.1504
H 14.1235 24.7365 25.227
H 13.4891 26.0929 24.5755
O 5.37834 3.26127 9.67149
H 6.10734 2.86142 9.1159
H 5.23611 4.21309 9.39978
O 27.961 27.2996 13.709
H 27.5371 27.0775 12.8309
H 28.465 28.1595 13.6277
O 9.03143 19.1729 22.9515
H 9.71512 18.9659 22.2517
H 8.95647 18.401 23.5829
O 8.48281 9.88561 5.43036
H 8.1479 9.08314 4.93653
H 9.47113 9.96756 5.30189
O 14.9983 11.6403 27.6563
H 15.125 12.4353 27.063
H 15.8115 11.5158 28.2249
O 29.1483 2.54391 10.8512
H 0.798156 2.90776 10.0111
H 28.2819 3.00847 11.0342
O 16.979 11.7272 1.14804
H 16.6003 10.803 1.19667
H 17.9778 11.6785 1.14589
O 13.097 10.7485 29.2454
H 13.7289 11.242 28.6478
H 13.3395 9.77843 29.2585
O 16.3108 3.46829 11.0616
H 16.9086 3.69563 10.2929
H 15.5586 4.12583 11.1047
O 3.66073 7.99737 10.5965
H 3.21899 8.31478 9.75741
H 4.1453 8.75901 11.0268
O 20.5212 20.1847 12.0368
H 20.131 21.0266 12.4094
H 19.8002 19.4992 11.9359
O 21.8856 26.0049 22.7179
H 21.9821 26.9912 22.8511
H 22.2096 25.7586 21.8045
O 6.46025 19.4338 14.6403
H 6.01649 18.865 15.3328
H 7.2495 19.8961 15.0445
O 23.0374 24.6508 25.1299
H 23.5965 25.4787 25.0858
H 22.3018 24.7089 24.4549
O 9.88381 26.3746 7.67886
H 10.0253 26.1174 6.72291
H 10.1644 27.325 7.81336
O 8.38265 15.5149 1.8446
H 9.02215 14.9874 2.40382
H 8.65082 15.4527 0.883238
O 10.2598 3.26378 5.96782
H 9.92083 2.32309 5.98263
H 9.71443 3.82442 6.59095
O 2.75366 19.5034 8.40135
H 1.85298 19.4372 7.97195
H 3.41719 18.9803 7.86641
O 14.3278 25.4975 7.43751
H 14.4373 26.1062 6.65165
H 13.8215 24.6814 7.15903
O 23.924 27.6462 25.2865
H 23.2924 27.7212 24.5149
H 23.6607 28.2983 25.9974
O 26.0103 14.2133 28.8375
H 26.691 14.8756 28.5245
H 25.1716 14.6935 29.0946
O 21.1558 2.05926 19.3577
H 21.032 1.06836 19.4107
H 20.3849 2.46571 18.8673
O 10.0061 3.85857 9.81953
H 9.66607 2.91864 9.78966
H 9.38551 4.42034 10.3666
O 3.77189 16.8397 4.42724
H 3.79744 16.4855 5.36203
H 2.92799 16.542 3.98091
O 28.6848 28.8988 19.8981
H 27.7455 29.0842 20.1869
H 28.7545 28.9997 18.9057
O 26.1035 24.068 10.4158
H 26.8327 24.3431 9.78914
H 26.1602 23.0834 10.5813
O 14.6579 2.51327 12.9176
H 13.7613 2.42741 12.4831
H 15.3067 2.90911 12.2677
O 26.1821 22.4165 27.3927
H 25.9495 22.4273 26.4202
H 26.6469 23.2685 27.6337
O 11.0509 16.723 26.2456
H 11.7041 17.4784 26.2978
H 11.4555 15.9038 26.6521
O 6.77035 20.4459 22.8804
H 6.22924 19.893 23.5141
H 7.70251 20.0865 22.8368
O 18.7406 6.57985 22.4985
H 18.747 6.52255 23.4969
H 17.7959 6.57798 22.1706
O 10.0236 14.1239 3.66962
H 10.2082 13.335 4.2557
H 10.8692 14.409 3.21828
O 9.70517 11.7974 18.3321
H 10.4241 12.4062 18.6676
H 10.1045 11.1167 17.7179
O 2.10746 6.80805 12.6727
H 1.28116 7.36839 12.6155
H 2.66282 6.94856 11.853
O 7.89328 25.2058 4.28736
H 7.87741 24.6692 5.13102
H 8.75599 25.708 4.22794
O 15.6214 25.9988 9.56962
H 15.0133 25.6176 10.266
H 15.2666 25.779 8.66087
O 13.4399 24.9268 11.0125
H 13.1424 25.2236 10.105
H 12.7478 24.3242 11.4096
O 27.3093 13.3901 20.8913
H 26.7071 14.1106 20.5475
H 26.9417 12.4968 20.6324
O 28.212 16.1027 27.6164
H 27.4409 16.6825 27.8793
H 28.8638 16.6382 27.0793
O 9.46689 24.9715 11.3432
H 8.59348 25.3221 11.0052
H 10.1833 25.1572 10.6707
O 25.8118 1.55744 14.5597
H 25.6019 1.41344 13.5926
H 25.52 0.759137 15.0865
O 8.03874 14.0515 9.49935
H 7.90178 14.7184 10.2317
H 7.72188 14.4378 8.63314
O 21.1264 9.19178 4.90416
H 20.9334 8.26555 5.22794
H 20.283 9.60915 4.56582
O 21.3077 12.6913 17.2271
H 22.1572 12.1679 17.1613
H 20.8465 12.4717 18.0868
O 15.0264 18.0803 28.0272
H 15.2591 17.1509 28.3137
H 15.5622 18.7368 28.5582
O 14.2424 11.2398 2.83772
H 13.7636 11.0661 1.97716
H 14.7246 10.4118 3.1239
O 10.6301 25.7257 5.1
H 11.0343 24.8218 4.95979
H 11.2554 26.4271 4.75797
O 17.026 16.089 28.9453
H 17.3004 16.782 0.859498
H 16.677 15.2843 0.673036
O 28.0037 5.05996 14.5607
H 28.9346 5.41009 14.6643
H 28.0184 4.06047 14.5892
O 11.8659 16.9599 22.9508
H 11.0101 16.7907 23.4398
H 11.693 17.5704 22.1779
O 9.1856 12.8091 27.2002
H 9.78018 12.3947 26.5111
H 8.3252 12.3016 27.2467
O 2.116 14.9602 13.5638
H 3.0454 14.6974 13.823
H 2.14725 15.7909 13.0079
O 17.0869 7.2837 18.1759
H 17.1208 7.31459 17.1769
H 16.1347 7.32448 18.4786
O 25.2557 4.18937 14.2118
H 26.0773 4.69538 14.4742
H 25.4355 3.20751 14.2719
O 0.892798 7.62734 19.112
H 28.6763 7.76221 18.9051
H 1.14738 8.19076 19.898
O 6.21041 10.9649 18.9926
H 6.34583 11.8597 18.5671
H 5.81118 10.3357 18.3257
O 18.6944 22.2749 20.315
H 17.8876 21.7071 20.4782
H 19.416 22.0218 20.9593
O 18.7423 25.9579 22.4794
H 19.7421 25.9485 22.46
H 18.4262 25.8427 23.4211
O 29.2816 0.917666 12.9012
H 29.0572 1.49841 12.1186
H 1.51063 0.726389 12.9037
O 5.87151 16.9772 28.4403
H 6.6918 16.4279 28.2811
H 5.95794 17.4606 29.3114
O 15.0612 24.5709 21.7014
H 14.532 23.7777 21.4001
H 15.8624 24.6801 21.1131
O 7.7762 24.9851 20.6258
H 7.19572 24.3255 21.1033
H 7.27231 25.8388 20.4944
O 10.6551 22.9921 5.7242
H 10.6336 22.5131 4.84663
H 9.7469 22.9634 6.14186
O 8.10313 9.53019 25.4682
H 8.87431 10.1515 25.6072
H 7.80905 9.57225 24.5134
O 6.33264 22.9822 21.9109
H 6.71169 22.0931 22.1674
H 6.055 23.4764 22.7347
O 5.72725 27.0703 19.603
H 5.81479 27.8348 18.9645
H 5.01501 26.4467 19.2807
O 28.3765 28.9442 27.7747
H 28.5839 0.855859 27.0565
H 28.9033 28.1087 27.6183
O 21.7894 4.94476 10.6438
H 21.2447 4.11855 10.5001
H 22.2242 4.90502 11.5434
O 25.2477 20.5269 13.2147
H 25.5872 20.4485 14.1521
H 24.4455 19.9409 13.1007
O 23.9186 28.9153 1.23082
H 24.868 28.6696 1.03538
H 23.5666 28.3304 1.96157
O 24.7935 9.39478 27.9539
H 24.4034 9.45897 27.0354
H 25.2123 10.2689 28.2
O 11.1163 19.2305 18.5631
H 11.5048 19.9424 17.978
H 10.8737 18.4365 18.0057
O 25.7991 26.6317 27.0533
H 25.8179 27.2966 27.8
H 25.049 26.852 26.4297
O 24.7392 16.9696 22.771
H 23.949 16.7452 22.2007
H 25.4835 16.3311 22.5753
O 24.8526 18.728 20.0786
H 24.7873 19.2635 20.9206
H 24.2368 17.9422 20.1347
O 9.26387 26.2719 18.5484
H 9.0145 27.2333 18.6644
H 9.04434 25.7675 19.3835
O 12.5662 16.9206 13.1234
H 12.9733 17.4387 12.3711
H 12.8594 17.313 13.9953
O 4.76407 1.86508 12.0863
H 4.83159 2.58464 11.3952
H 4.03476 1.22878 11.8349
O 27.4734 15.047 16.9856
H 28.2765 14.9809 17.5777
H 27.7583 14.9831 16.0291
O 18.21 24.1069 11.6418
H 18.8383 23.5227 12.1555
H 17.5224 24.4836 12.2624
O 27.7511 22.0403 20.7241
H 28.1981 22.4332 19.9205
H 28.2615 21.2366 21.0299
O 12.9893 21.327 17.5656
H 13.855 21.0846 17.1276
H 13.0254 22.2784 17.8714
O 13.574 8.14658 0.647829
H 12.7409 7.59665 29.4595
H 14.1562 7.79205 28.6686
O 7.80182 17.8314 2.77021
H 6.84727 18.1215 2.70211
H 7.9149 16.9479 2.31553
O 12.9373 20.34 3.9244
H 12.8661 19.4901 3.40225
H 12.067 20.8307 3.88277
O 21.6261 6.05042 8.27597
H 22.4058 5.74463 7.72968
H 21.6805 5.64727 9.18949
O 11.0641 7.17207 28.1977
H 10.7526 6.98651 27.2657
H 10.6024 7.9873 28.5473
O 7.11104 28.7193 21.5553
H 7.61271 28.2006 22.2476
H 6.71685 28.0886 20.8869
O 20.3825 22.7482 13.0729
H 20.0906 23.1548 13.9387
H 21.3642 22.894 12.9505
O 22.916 16.8637 20.5437
H 23.2125 15.9236 20.3756
H 21.9633 16.9688 20.2585
O 18.2718 14.2665 15.0174
H 18.3086 13.2823 15.1908
H 18.8634 14.742 15.6684
O 13.0621 22.8903 7.12612
H 13.5724 22.0368 7.02036
H 12.1144 22.7498 6.83955
O 25.0321 22.9048 24.885
H 24.1888 23.3649 24.6075
H 25.7667 23.1438 24.25
O 29.1795 29.3939 17.3563
H 28.575 0.990824 16.6405
H 1.0597 28.7273 16.9622
O 18.6743 26.1885 9.838
H 17.7558 26.3278 9.46793
H 18.6353 25.5259 10.5859
O 24.9235 22.6883 17.2987
H 25.4664 21.9228 17.6439
H 24.3825 22.3861 16.5138
O 12.857 22.5928 24.5826
H 12.5883 22.2162 25.4691
H 13.7804 22.2838 24.3551
O 9.2669 0.7708 5.78808
H 9.15924 0.575108 4.81334
H 10.1455 29.1659 6.10473
O 27.3674 19.6092 27.9681
H 26.7089 18.8704 28.1109
H 26.9533 20.3195 27.3988
O 24.3594 23.5111 19.782
H 24.5281 22.6742 20.3029
H 24.6817 23.39 18.8432
O 20.1374 10.03 21.0354
H 19.9537 9.35602 20.3199
H 20.3249 10.9184 20.6163
O 23.9105 1.82683 21.7452
H 23.9781 1.90384 20.7505
H 23.3623 2.58339 22.1016
O 19.6482 11.8209 11.0524
H 20.4593 11.7481 10.4721
H 19.507 12.7769 11.3095
O 14.0386 22.6271 20.1301
H 13.8507 23.3671 19.4843
H 14.8251 22.0981 19.8112
O 20.4561 29.1452 2.51436
H 21.1934 1.06199 2.42285
H 19.5844 0.870017 2.62502
O 11.3727 24.8428 9.26154
H 11.4545 23.8598 9.09708
H 10.8438 25.2614 8.5232
O 21.0148 17.007 23.7326
H 20.8695 17.9898 23.6182
H 20.9476 16.5544 22.8434
O 2.07693 13.8728 5.24992
H 2.0759 14.4207 6.08649
H 1.62001 14.3797 4.51897
O 21.8863 13.8551 6.52414
H 21.0206 13.5614 6.11885
H 21.7207 14.6216 7.14471
O 22.6593 15.1585 25.3624
H 21.971 15.8358 25.1026
H 22.4523 14.2862 24.9195
O 26.371 20.5925 18.1121
H 25.6586 20.1304 18.6403
H 27.2639 20.4054 18.5215
O 3.74633 3.5738 16.1243
H 3.18542 2.96531 16.6857
H 3.22787 4.40154 15.9098
O 1.91794 15.0361 20.7258
H 2.86077 15.367 20.7654
H 1.80214 14.2815 21.3716
O 28.592 19.7317 1.64849
H 28.2819 19.6503 29.4538
H 28.7667 20.6933 1.86047
O 1.28496 8.62675 21.7528
H 2.04017 8.46934 22.3891
H 29.2168 8.16436 22.0886
O 11.4666 21.6413 10.2258
H 10.6261 21.1073 10.3178
H 11.5804 22.225 11.0297
O 28.3192 2.16348 14.9453
H 27.3304 2.01565 14.9264
H 28.7356 1.73505 14.1433
O 23.8663 21.6526 9.99869
H 24.8455 21.6795 10.1995
H 23.6563 20.8279 9.47342
O 20.5797 19.8483 24.172
H 21.2993 19.8584 24.8664
H 19.6875 19.7745 24.6175
O 0.94055 5.59264 10.5563
H 1.41516 6.1688 11.2218
H 28.8163 5.29765 10.9362
O 19.342 23.68 15.3742
H 19.003 23.3429 16.2525
H 19.2576 24.676 15.3445
O 19.791 10.6047 1.35685
H 20.2213 11.4901 1.18093
H 20.2628 9.895 0.833638
O 12.0754 27.0436 3.22897
H 12.2488 26.9645 2.2473
H 12.833 27.5311 3.66302
O 22.4419 9.56084 29.4308
H 23.3423 9.53418 28.9965
H 22.5197 9.98332 1.58128
O 18.5017 25.9265 25.2833
H 18.9483 25.2252 25.8389
H 17.7525 26.3367 25.8033
O 5.35471 25.7163 7.76704
H 5.07932 26.3602 7.05326
H 4.96135 24.8173 7.57469
O 18.3102 26.5168 15.5388
H 18.0161 26.498 16.4944
H 18.2358 27.4494 15.1855
O 2.39767 17.5212 12.4762
H 2.95643 18.0469 11.8348
H 2.17321 18.0906 13.2671
O 17.2622 17.5005 2.68354
H 16.8517 16.6992 3.11865
H 16.7773 18.3243 2.9771
O 14.9389 26.8028 5.23271
H 15.8168 27.2298 5.44952
H 14.2785 27.5092 4.97846
O 17.3852 28.3759 5.74185
H 18.202 27.7995 5.76762
H 17.1057 28.5998 6.67551
C 26.5781 14.9273 9.491
O 25.4354 15.7387 9.20667
H 25.7689 16.569 8.90247
C 8.05041 21.6772 11.3102
O 9.021 20.6695 11.0148
H 8.82593 19.8812 11.4981
C 14.9165 23.7624 2.87667
O 15.3695 23.7631 4.23305
H 14.6799 24.1242 4.76895
C 11.2858 2.629 29.2574
O 10.1613 2.46295 28.3898
H 10.0279 1.52958 28.3262
C 6.12857 1.11067 24.7556
O 6.69276 28.8548 25.598
H 7.48345 28.5462 25.1825
C 22.1664 25.1318 10.2597
O 23.1081 24.4909 9.39526
H 23.3556 23.6433 9.73206
C 26.9513 25.4938 18.1552
O 27.2658 24.4231 17.2609
H 26.3792 24.099 17.2161
C 21.946 6.13132 17.7725
O 20.9641 5.23926 18.3064
H 20.2976 5.72857 18.7639
C 6.59394 4.11803 26.8692
O 5.56543 4.28652 25.8901
H 6.00717 4.37915 25.0599
C 8.52682 25.0063 26.9787
O 8.21284 26.3379 27.3949
H 7.28567 26.3791 27.2169
C 28.242 18.8967 11.3715
O 28.1411 19.1128 9.96149
H 28.6816 19.8591 9.75194
C 26.2261 18.1589 15.7259
O 26.4116 19.5768 15.713
H 26.2237 19.886 16.586
C 23.7561 10.5056 19.051
O 23.576 11.4068 17.9554
H 24.2941 12.0157 17.8737
C 1.02333 18.8146 15.4337
O 1.57851 19.3195 14.2164
H 1.26095 20.1935 14.0483
C 23.7097 4.77784 28.8495
O 24.5004 4.11706 1.08848
H 25.0808 3.48795 29.4405
C 27.9483 28.4496 8.59798
O 26.8251 28.4074 9.482
H 26.1569 27.9316 9.01277
C 3.47192 22.9218 29.4573
O 2.38295 23.8462 29.3896
H 1.91006 23.5467 28.6283
C 20.9474 1.33302 9.82739
O 20.863 2.70381 9.429
H 21.3993 2.82176 8.65992
C 26.2688 24.9248 2.48466
O 27.2235 25.6516 1.70671
H 27.8032 26.0017 2.36577
C 17.8428 3.65135 17.8278
O 19.1687 3.12114 17.752
H 19.7442 3.85329 17.5912
C 5.8432 6.26733 14.171
O 6.80761 5.28416 13.7861
H 6.48498 4.41098 13.9488
C 23.8104 8.3975 9.9109
O 23.5547 9.48834 9.02231
H 23.484 9.04125 8.19277
C 28.4365 24.9818 7.89463
O 28.6929 24.2191 9.07681
H 29.3675 24.6587 9.57142
C 19.4974 5.91462 5.23263
O 20.6964 6.67182 5.41715
H 21.0814 6.18331 6.1286
C 1.2412 0.754634 2.45478
O 1.66091 28.2854 3.06809
H 1.79065 27.6083 2.42181
C 23.1744 12.609 27.9261
O 22.4917 13.8624 27.8386
H 22.5492 14.2518 26.9795
C 10.4137 5.59535 2.64081
O 9.85992 4.32939 3.00907
H 10.2627 4.08543 3.82839
C 27.3124 10.6878 16.8758
O 27.6969 10.3911 18.2208
H 28.5905 10.6982 18.2355
C 12.3752 13.8462 7.0531
O 12.7849 12.6611 6.36561
H 13.1232 12.1792 7.10474
C 2.74711 5.551 29.1503
O 3.50657 5.05933 1.50516
H 4.04567 4.30441 1.32492
C 5.62808 27.2101 2.00611
O 5.78677 26.8838 3.38932
H 6.4366 26.2391 3.62408
C 21.0014 17.8146 28.3023
O 20.6366 19.1019 27.7977
H 21.3382 19.3918 27.2348
C 16.1873 27.3424 18.3708
O 17.2194 26.4245 18.0005
H 17.4676 25.9455 18.7764
C 7.76025 12.9444 16.0753
O 7.379 13.0966 17.4452
H 8.05492 12.6488 17.9306
C 5.4169 13.6027 3.17217
O 5.00497 12.7753 4.26333
H 4.0786 12.868 4.4254
C 8.79148 29.2371 2.36273
O 9.89721 0.872706 3.18224
H 10.6402 1.01313 2.61542
C 2.92022 6.18737 23.6781
O 3.02263 7.55346 24.0883
H 3.16242 7.62042 25.0205
C 22.8065 19.2457 7.3452
O 23.1015 18.4257 8.47898
H 24.0411 18.3895 8.57274
C 4.50001 9.55522 2.57475
O 3.21555 9.23177 2.03581
H 2.71973 10.0193 2.20034
C 24.6136 7.1533 25.1741
O 25.7186 6.28712 24.9026
H 26.0639 5.97533 25.7251
C 24.4341 10.206 14.8331
O 24.6892 8.84473 14.477
H 24.001 8.33742 14.0745
C 4.31225 21.7341 13.273
O 3.76443 22.2814 12.0708
H 3.96663 23.1948 11.9374
C 12.9874 13.1768 19.7798
O 11.6933 13.3784 19.2057
H 11.8921 13.6564 18.3247
C 15.3297 15.3431 12.2746
O 14.0953 14.8135 12.7652
H 13.4048 15.4574 12.805
C 28.9716 18.3571 20.2241
O 29.0526 19.7791 20.0969
H 1.21497 20.0091 20.0419
C 23.5009 20.5848 26.3962
O 22.6266 19.6006 25.8379
H 23.1782 18.9166 25.4902
C 8.04734 15.5258 6.53494
O 7.10479 14.6776 7.19599
H 6.98971 13.9574 6.59507
C 27.259 11.625 24.5356
O 28.6846 11.5804 24.6382
H 28.923 10.8375 25.1714
C 5.80334 19.0859 26.0137
O 6.0863 18.6242 24.6902
H 6.08555 17.6853 24.7978
C 16.3094 11.4067 23.9779
O 15.9132 12.0067 22.7419
H 16.3205 12.8569 22.6762
C 17.2853 0.983779 15.677
O 18.1273 29.1693 14.6698
H 17.6797 29.1045 13.84
C 6.2011 0.846053 6.88651
O 7.22512 1.79531 7.19505
H 7.91843 1.52611 6.61207
C 18.8352 14.8013 26.353
O 17.6004 15.5224 26.336
H 17.537 15.8853 27.2062
C 19.3633 8.81741 9.19524
O 18.5084 9.65294 9.98001
H 18.98 10.4263 10.2493
C 4.12099 10.808 24.6804
O 5.0119 11.9048 24.4605
H 4.93977 12.2271 23.5751
C 12.2504 25.5491 28.6215
O 12.2286 26.8952 29.1037
H 11.5977 27.3565 28.5725
C 21.3191 7.45318 13.7337
O 22.7206 7.18531 13.8286
H 22.7075 6.26126 13.6311
C 21.4955 1.90915 15.0188
O 21.7073 1.80304 13.6085
H 21.1985 1.05307 13.3409
C 14.144 4.56867 19.5322
O 14.5027 4.34984 20.899
H 14.7123 3.44955 21.0954
C 3.32112 24.1435 15.6619
O 2.59501 24.4908 14.48
H 1.84026 25.0174 14.6944
C 25.5497 22.6893 5.58196
O 25.2985 21.3771 5.0723
H 25.6501 21.3912 4.19525
C 27.5515 24.5561 23.201
O 26.7366 23.4461 22.8153
H 26.9324 23.2804 21.9058
C 5.4482 3.57564 19.7185
O 6.52712 3.46339 20.6503
H 6.60024 2.52807 20.7637
C 5.39663 15.2153 24.8523
O 6.59533 15.7937 25.3753
H 6.8006 15.2548 26.1239
C 5.6364 15.9848 20.9275
O 4.36236 15.7014 21.5118
H 4.3994 14.8248 21.863
C 24.6198 2.63005 24.9616
O 24.6122 2.76171 26.3855
H 23.78 2.39504 26.6424
C 9.65504 22.7218 23.4984
O 10.2078 23.2485 24.7075
H 11.1425 23.3086 24.5822
C 11.5962 20.1037 14.0983
O 10.8839 18.8654 14.0337
H 11.3309 18.3496 13.3801
C 19.1327 17.5723 20.8327
O 20.0445 16.4925 20.6149
H 19.413 15.795 20.5268
C 6.74836 26.1406 15.977
O 8.09796 25.7148 16.1824
H 8.2169 25.7646 17.1186
C 9.55555 0.954675 18.702
O 8.57646 28.7752 19.1686
H 8.12515 29.0181 19.9626
C 26.3904 28.2162 22.7875
O 26.1899 28.9694 21.5887
H 25.4501 29.554 21.652
C 10.2258 3.76067 25.0404
O 10.7873 2.73594 25.8646
H 10.6014 2.8722 26.7811
C 19.3223 28.9063 26.6532
O 20.5736 28.2326 26.8123
H 20.5152 27.497 27.4026
C 21.2974 16.1275 16.8446
O 20.2313 15.1959 16.6436
H 20.6603 14.3733 16.8236
C 11.6205 23.6802 13.7068
O 11.6933 23.5464 12.2849
H 10.8568 23.9267 12.0645
C 8.6301 15.0004 19.6714
O 9.61404 14.2755 20.4138
H 10.4443 14.2595 19.9629
C 28.376 15.86 23.6385
O 27.44 15.7631 22.5617
H 27.8761 15.1533 21.9864
C 21.5141 5.06843 21.607
O 21.3172 3.65773 21.7336
H 21.2301 3.35158 20.8438
C 23.3299 24.4515 28.7236
O 22.548 23.9897 27.6189
H 23.0123 24.2048 26.8244
C 22.1865 12.2089 22.9425
O 22.246 12.5133 24.3385
H 21.5286 12.055 24.7489
C 8.17754 12.9225 23.2462
O 9.52584 13.056 22.7889
H 9.60284 13.6976 22.0994
C 1.18642 19.7147 5.1077
O 29.1456 19.9811 6.26725
H 28.3145 19.5823 6.05927
C 16.4249 22.8391 24.1941
O 15.4658 21.7811 24.2701
H 15.6843 21.3708 25.0928
C 12.8971 13.8447 23.493
O 13.6711 14.8653 22.8571
H 13.0463 15.5708 22.787
C 24.541 9.20867 5.91164
O 23.3669 8.83554 6.63767
H 22.6844 8.76903 5.98743
C 8.84736 17.8636 16.4691
O 10.2691 17.7174 16.4227
H 10.3977 18.1738 15.6052
C 2.11937 15.0485 17.1164
O 1.12137 15.0304 18.1403
H 1.48347 15.1364 19.0068
C 4.72293 12.4919 8.87065
O 5.43061 12.6622 10.1015
H 6.31042 12.9582 9.92449
C 26.357 5.55661 19.1898
O 26.647 6.90338 18.8063
H 26.6192 6.96841 17.864
C 8.66992 8.66859 19.553
O 9.12276 9.81522 20.2776
H 9.12416 10.5624 19.6991
C 5.48573 23.1399 25.4022
O 5.73725 24.3219 24.6376
H 5.62329 25.0823 25.187
C 3.88602 28.5954 9.35354
O 4.05302 27.3153 9.96867
H 4.69248 26.8264 9.47353
C 12.3267 14.3972 28.4544
O 12.4612 14.6433 27.0522
H 13.3716 14.453 26.885
C 5.88559 12.422 28.059
O 6.54181 12.0916 26.8322
H 5.89803 11.7392 26.2369
C 11.658 7.28589 13.0395
O 11.9199 6.03091 12.406
H 11.0834 5.59637 12.4727
C 17.894 17.4183 16.1295
O 17.7772 18.6297 16.8804
H 18.6111 18.734 17.3127
C 23.0545 17.8946 11.8724
O 22.9548 19.0344 12.7303
H 22.0908 19.3938 12.5985
C 13.9166 27.1531 13.6715
O 14.7964 26.9109 12.5706
H 14.2514 26.4898 11.9236
C 4.28182 29.2538 17.4298
O 5.62806 29.3806 17.8951
H 5.99857 1.41588 17.5275
C 19.117 4.63687 13.7024
O 17.8053 4.64973 14.2717
H 17.1904 4.08767 13.8256
C 15.3344 10.0216 11.9404
O 15.6089 9.4654 13.2288
H 16.5326 9.30652 13.35
C 8.63877 26.5401 23.7308
O 8.63195 27.8865 24.2125
H 9.47324 27.9882 24.6307
C 27.6757 9.12988 13.2161
O 28.6196 8.55138 12.3109
H 28.8272 9.17067 11.628
C 1.98158 12.7162 1.25784
O 2.11225 11.8654 2.39975
H 1.40958 12.0207 3.01225
C 8.08771 22.3507 15.7743
O 8.20673 21.0102 16.2578
H 8.0834 20.9673 17.1938
C 26.9204 14.9053 5.65661
O 26.7007 13.73 4.87223
H 25.9011 13.3029 5.13906
C 29.0543 2.78466 24.7694
O 0.786561 1.71416 25.5842
H 1.6129 1.99849 25.9438
C 3.85287 27.7376 14.0122
O 2.6484 28.3899 14.423
H 2.41481 28.0537 15.2747
C 18.6458 5.27355 9.18759
O 18.0773 3.96461 9.27926
H 18.7216 3.29571 9.1047
C 17.1395 14.8088 19.2362
O 18.0473 14.5606 20.3128
H 17.5764 14.6809 21.1232
C 12.4689 28.7196 24.5177
O 11.2124 28.8959 25.1772
H 11.1948 1.03248 25.4969
C 0.910713 3.86544 18.4972
O 1.82825 2.82741 18.1429
H 1.29014 2.05542 18.0563
C 10.2768 22.1655 19.59
O 8.87366 22.4135 19.4697
H 8.67644 23.2836 19.7811
C 13.1791 10.9609 9.22676
O 14.0371 11.096 8.09079
H 14.8891 11.313 8.43721
C 14.4931 7.2844 4.23686
O 15.0216 7.70053 2.97494
H 14.3451 7.9132 2.35034
C 9.58266 4.95754 20.6931
O 10.9033 5.08741 20.1602
H 11.5132 5.13294 20.8805
C 12.0577 28.8882 8.85157
O 10.7133 28.7793 8.37675
H 10.1448 29.3332 8.88967
C 15.843 16.5136 6.29923
O 15.4349 17.8711 6.11101
H 16.1106 18.4402 6.44671
C 5.14638 1.96739 2.64599
O 5.09786 2.79471 1.48061
H 5.99985 2.77725 1.1993
C 1.60527 1.7467 5.85066
O 2.20207 29.2317 5.56424
H 1.75769 28.8212 4.83823
C 17.6684 10.4293 4.19816
O 19.0631 10.6335 3.95736
H 19.088 10.6289 3.0127
C 3.71662 20.0949 21.3559
O 3.10639 19.8718 20.082
H 3.64541 20.2351 19.3961
C 27.7638 8.0242 1.52784
O 27.6208 7.56923 28.9322
H 27.1217 8.2563 28.5177
C 7.92206 1.035 10.3069
O 8.76584 1.58579 9.29221
H 8.19642 1.91216 8.61231
C 24.3257 3.13252 17.8945
O 23.8783 2.42469 19.0537
H 22.9977 2.092 18.9715
C 9.4264 19.4849 5.87169
O 9.05151 19.7619 4.5198
H 8.52994 19.0737 4.13596
C 26.4439 17.2216 2.41545
O 27.4329 17.8082 3.26557
H 27.8668 18.5187 2.81849
C 11.7212 25.5229 21.6405
O 12.5314 25.6079 22.8157
H 13.3404 25.286 22.4483
C 3.77088 25.4586 22.2424
O 3.59136 25.2038 23.638
H 4.41732 24.8314 23.9067
C 1.79298 24.7535 4.68442
O 29.2212 24.6794 4.15001
H 28.8028 25.5082 4.32584
C 16.5735 23.8783 28.5351
O 15.9592 23.5849 27.2775
H 15.9387 24.401 26.8015
C 7.06716 6.11486 23.318
O 6.89236 4.70485 23.48
H 6.90426 4.36029 22.6001
C 26.6558 20.1099 24.3671
O 25.7075 19.61 23.4206
H 25.4862 18.6962 23.5153
C 4.39818 9.2842 21.0252
O 5.1721 10.4452 21.3382
H 5.63862 10.646 20.5413
C 24.2244 14.3026 16.4122
O 25.2433 13.6729 17.1934
H 26.0946 13.9963 16.941
C 4.35904 26.384 27.0028
O 5.60822 26.5218 26.3205
H 5.70594 27.4232 26.0542
C 12.03 9.25739 5.2378
O 11.4231 10.5506 5.17267
H 11.9714 11.1982 5.58858
C 27.5725 14.4478 13.4101
O 28.327 14.68 14.6024
H 29.1869 14.9543 14.3223
C 7.67468 4.04677 17.2786
O 6.86865 3.01241 16.7082
H 6.30326 3.25837 15.9921
C 10.0354 27.2263 13.7827
O 10.1993 27.2864 15.202
H 9.64702 26.6672 15.6543
C 15.4374 7.79982 26.1888
O 15.4677 7.48254 27.5828
H 16.0509 6.74168 27.6466
C 21.0156 27.102 7.27291
O 19.5978 26.9742 7.13653
H 19.3008 26.9068 8.03112
C 9.05334 8.29837 15.6564
O 10.3153 8.45235 16.3111
H 10.4173 7.59694 16.6996
C 26.8694 2.87907 7.50121
O 27.4141 2.90977 6.17939
H 27.6824 3.81488 6.13662
C 13.7379 16.3192 2.68427
O 12.3754 15.9157 2.84424
H 11.8638 16.7047 2.75013
C 3.81761 22.8831 8.78753
O 3.65706 22.2473 7.51672
H 3.17446 21.5076 7.85276
C 4.66119 10.6801 16.131
O 5.20814 9.59447 16.884
H 4.54814 8.92954 17.0077
C 28.4872 11.9395 7.72448
O 28.0601 11.9272 9.08916
H 27.1333 11.743 9.09618
C 1.32855 8.51716 7.46275
O 2.16333 9.417 8.19646
H 2.46112 10.0615 7.57284
C 15.9654 7.79405 7.388
O 14.5864 8.16996 7.34482
H 14.4774 9.05052 7.67001
C 5.85567 25.3207 11.8944
O 4.7179 24.788 11.2113
H 4.15109 25.5433 11.1761
C 12.8458 1.91651 15.8456
O 13.8805 2.8492 15.5225
H 14.1846 2.67156 14.6455
C 3.98031 6.23499 17.8212
O 3.28153 7.36432 17.2909
H 2.46515 7.45181 17.7588
C 24.145 27.0814 19.8362
O 23.3805 25.9474 20.2539
H 23.8273 25.156 19.995
C 20.8268 20.7642 18.3294
O 19.7685 20.1545 17.5855
H 19.2646 20.8989 17.2939
C 19.8666 10.7364 14.9547
O 18.6767 10.5725 14.1786
H 18.9086 10.8678 13.3114
C 15.4259 7.12902 22.4948
O 16.2385 6.26145 21.6999
H 15.6566 5.65459 21.2684
C 25.5352 20.7392 1.67691
O 26.4377 21.2277 2.67272
H 27.2942 20.9499 2.38568
C 0.893602 22.0868 17.3586
O 28.7364 22.5928 18.339
H 28.2153 23.2337 17.88
C 18.1286 17.4357 12.4109
O 18.3687 18.7285 11.8488
H 17.8308 19.3242 12.3475
C 17.1423 12.6084 9.18997
O 16.5234 11.3475 8.92172
H 17.1122 10.7357 9.33649
C 19.9256 21.9594 8.08767
O 19.005 21.4064 7.14338
H 18.6814 22.1709 6.69186
C 9.54141 20.1874 26.3479
O 9.44767 21.5131 26.8756
H 9.96026 22.0894 26.3295
C 19.3532 10.9787 26.6767
O 20.0977 11.3185 25.504
H 19.6972 10.7745 24.8432
C 12.0351 8.00576 24.1454
O 12.0738 7.97062 22.7163
H 11.912 8.85395 22.4222
C 20.2151 7.33819 1.88068
O 21.4279 6.96929 1.21886
H 21.8857 7.73453 0.906088
C 24.9992 26.5091 7.03756
O 24.8447 26.6648 8.45064
H 24.1539 26.0681 8.69538
C 1.76786 14.3547 10.4576
O 1.15946 15.6433 10.577
H 1.44479 16.0133 11.3984
C 28.4952 22.2903 13.3282
O 1.00769 21.624 13.3559
H 1.69653 22.24 13.1582
C 22.5895 1.98948 5.87781
O 22.1377 2.7428 7.00621
H 22.39 3.64391 6.87456
C 1.75953 18.8734 25.207
O 1.39764 17.7365 25.9951
H 1.91947 17.8148 26.7791
C 5.69972 6.73229 7.92127
O 4.76182 6.06914 8.77302
H 4.5205 6.6177 9.50369
C 15.9326 22.6695 9.32538
O 16.8234 22.2744 10.3719
H 17.4007 23.0011 10.5498
C 19.6456 25.6107 29.456
O 20.4281 26.2701 28.4571
H 21.0484 25.6243 28.1552
C 1.92214 11.3599 13.3787
O 3.29668 11.6533 13.1151
H 3.66044 11.2162 12.3604
C 7.63671 19.2152 19.5249
O 7.26129 20.4139 18.8415
H 7.80521 21.134 19.122
C 27.7016 11.2921 28.2771
O 26.3523 11.6336 28.6052
H 26.1467 12.5551 28.6442
C 15.261 6.48857 10.9109
O 14.3562 5.39562 11.089
H 13.5735 5.61612 11.5705
C 29.1666 22.5467 26.0569
O 0.764155 23.1524 27.3042
H 28.8065 23.7278 27.5439
C 8.21897 22.5785 7.82475
O 8.01469 23.3254 6.62253
H 7.07669 23.2636 6.52579
C 22.4067 26.2012 3.87029
O 22.6276 27.3626 3.06569
H 21.7948 27.8089 3.07871
C 5.02464 16.5562 9.4088
O 4.65803 15.7296 8.30097
H 5.46119 15.353 7.9752
C 6.33211 10.2419 12.2663
O 5.21789 10.1865 11.3717
H 5.2285 10.8888 10.7395
C 20.5985 16.1652 9.30978
O 21.554 16.1023 8.2477
H 22.1308 16.8479 8.31321
C 19.8276 6.80747 26.0976
O 18.8428 6.5825 25.0854
H 18.4388 5.78643 25.3954
C 27.3749 11.2362 3.11056
O 28.3205 12.2815 3.35203
H 27.9034 12.8627 3.96953
C 12.5285 21.5403 28.3442
O 12.7548 21.2761 26.9571
H 12.8384 20.3368 26.8961
C 15.9172 19.4364 19.9708
O 16.015 20.6485 19.2184
H 16.6267 20.6021 18.4997
C 16.6325 20.3008 4.29866
O 15.7587 19.7342 3.31872
H 14.8905 19.875 3.6643
C 17.6671 18.6856 8.66208
O 17.3748 19.1878 7.35543
H 17.9189 19.957 7.28265
C 23.3068 11.9072 3.03429
O 22.7475 10.5916 2.99631
H 22.3787 10.3564 3.834
C 16.2836 2.95161 5.74987
O 16.1693 1.8948 4.79332
H 16.7363 1.18238 5.04643
C 25.9708 0.984064 3.50446
O 26.8821 29.3429 4.53376
H 27.095 1.41251 4.94829
C 16.8858 29.3892 9.12196
O 16.5137 28.4052 8.15342
H 16.0176 27.8028 8.68635
C 21.4826 0.854349 23.4447
O 22.5221 28.6743 23.1369
H 23.0139 29.212 22.5352
C 20.0953 14.243 1.60384
O 20.5265 13.079 0.893809
H 20.814 13.3338 28.7829
C 11.3449 14.027 15.7544
O 11.8803 13.0292 16.6276
H 11.7494 12.2876 16.0567
C 20.9149 14.4815 12.6969
O 19.51 14.2611 12.5463
H 19.2084 14.5532 13.3928
C 22.7696 8.53468 22.6024
O 23.9214 9.23583 23.0785
H 24.4839 9.34025 22.3264
C 10.6037 16.7346 9.38869
O 11.8747 16.8421 10.0351
H 12.3784 17.637 9.94847
C 4.6453 19.4391 2.45841
O 5.243 18.1408 2.50535
H 4.67994 17.5927 3.03031
C 28.8802 8.19342 26.0195
O 0.897639 9.39687 26.0814
H 1.58164 9.2884 26.7243
C 9.07325 1.89496 13.8451
O 9.46013 3.1413 13.2604
H 8.84951 3.83504 13.4576
C 6.67035 6.77515 4.01543
O 7.57753 7.04056 5.0885
H 8.01788 6.2535 5.37075
C 1.75094 13.9231 26.2724
O 1.74219 14.9645 27.2523
H 0.851881 15.0485 27.5578
C 20.3369 27.3488 18.9396
O 21.1712 27.9911 19.9072
H 21.8659 27.3577 20.0024
C 25.181 24.6578 14.3161
O 25.9112 25.8193 14.7193
H 26.3175 26.198 13.9548
C 12.8497 5.23324 8.27016
O 13.1297 5.55183 6.9045
H 13.3241 6.47295 6.82217
C 4.27866 4.46327 5.76266
O 3.25192 4.56549 6.75274
H 3.51789 5.22813 7.37176
C 7.71747 20.5517 0.871984
O 8.93015 21.3007 0.757056
H 9.04227 21.3817 28.5747
C 11.8964 5.35305 16.6686
O 10.8631 5.99107 17.4236
H 10.9324 5.70826 18.3226
C 1.43525 26.2733 11.4523
O 1.85 25.7913 10.1714
H 2.60095 26.3217 9.95277
C 24.1703 0.744002 11.406
O 25.5036 1.00473 11.8523
H 26.1458 0.64247 11.2612
C 4.94985 23.2939 4.45304
O 5.42465 23.2179 5.79978
H 4.83561 22.6375 6.25705
C 18.3628 13.5745 5.72315
O 19.6416 13.0494 5.35746
H 19.5708 12.3935 4.68085
C 8.54449 16.0369 12.3382
O 7.42648 16.1809 11.4583
H 6.94366 16.9526 11.7123
C 17.6256 24.4189 6.70961
O 17.7705 23.4113 5.70533
H 17.2295 23.7947 5.03196
C 13.9583 18.0755 16.539
O 13.8147 17.3854 15.2948
H 14.4376 16.6749 15.3098
C 14.4398 24.4815 16.6198
O 13.5215 24.0915 17.6442
H 12.8874 24.7901 17.6992
C 19.7049 17.2952 5.12098
O 19.8008 17.3742 3.69638
H 18.9658 17.6184 3.32759
C 10.2876 10.2825 11.3856
O 10.2346 9.9922 9.98641
H 9.55212 10.5279 9.61192
C 3.29698 1.3136 21.3378
O 2.4231 28.9395 21.2282
H 1.63947 29.2662 20.8133
C 10.9328 18.2183 0.824604
O 10.842 17.9676 2.22952
H 9.96576 17.9049 2.57773
C 19.9071 20.9783 1.81655
O 19.1004 20.4622 0.754578
H 19.7265 20.0364 28.9417
C 15.3065 6.21668 15.3137
O 16.6663 6.57555 15.5728
H 17.1937 5.88989 15.1923
C 24.5282 6.97906 3.20753
O 25.2239 5.75139 3.4394
H 25.1414 5.30246 2.61194
C 21.6845 24.3829 17.7858
O 22.501 24.6181 16.6356
H 22.8785 23.7673 16.4725
C 6.23241 7.54658 27.5687
O 5.62913 8.68968 26.9569
H 6.32234 9.2314 26.6119
C 23.1936 15.962 3.94952
O 22.4319 16.1474 2.75354
H 21.6146 16.5767 2.95545
C 20.8319 27.0648 13.2024
O 20.3104 28.372 12.9492
H 19.5107 28.449 13.4467
C 16.9213 10.7127 19.6034
O 17.7522 10.9915 18.4735
H 17.482 10.2457 17.96
C 21.6084 22.4625 22.3119
O 20.724 21.3479 22.1702
H 20.951 20.6597 22.7768
C 28.1991 5.38458 22.0936
O 27.2972 6.41561 22.5039
H 26.8934 6.18913 23.3277
C 26.8191 6.96741 8.31792
O 25.7232 6.51876 7.51618
H 26.0788 6.04819 6.77782
C 23.6071 27.5646 16.2744
O 24.8889 27.9474 15.7689
H 25.2872 27.1508 15.453
C 5.49082 19.5775 6.14006
O 4.11806 19.1856 6.05726
H 4.08452 18.5273 5.38008
C 21.0699 3.43679 26.0135
O 19.8583 3.24866 26.7494
H 19.3349 2.66627 26.2203
C 15.8994 27.8039 22.9442
O 17.2439 28.2892 22.983
H 17.7982 27.5357 22.849
C 5.23494 14.5393 13.194
O 4.76208 13.7997 14.3229
H 4.2956 13.0809 13.9244
C 26.1384 4.56536 10.9807
O 27.3367 4.24638 11.6929
H 27.2855 4.60862 12.5642
C 22.6391 21.0053 15.4305
O 23.4233 22.1775 15.1946
H 23.409 22.2526 14.2527
C 1.40059 27.331 24.3954
O 1.57205 26.0359 24.9768
H 2.13734 25.5972 24.3595
C 13.1505 8.34568 18.3332
O 14.2664 7.97697 19.1479
H 14.1528 8.34365 20.0114
C 9.435 10.5938 1.01079
O 10.1541 9.98034 28.6902
H 11.0521 10.2564 28.7921
C 14.6494 11.0358 15.9486
O 13.9525 9.99837 15.2536
H 14.4712 9.78247 14.4938
C 14.99 28.9113 0.958862
O 14.7696 27.89 28.735
H 14.0011 27.4385 29.0489
C 19.812 22.7205 25.9853
O 20.0082 24.0227 26.5428
H 20.8781 24.0963 26.9045
C 3.14666 1.58574 27.6629
O 3.26719 2.36704 26.4712
H 4.08267 2.83261 26.5773
C 8.59488 6.84353 11.278
O 8.51813 5.50835 11.7843
H 7.75221 5.52283 12.3376
1500
 Atoms. Timestep: 70000
O 9.58954 17.9637 24.8949
H 10.5121 17.8713 25.2695
H 9.05585 17.148 25.1183
O 11.182 10.3809 21.9152
H 10.4053 10.9897 21.7535
H 11.9635 10.9158 22.2362
O 15.6141 19.6929 28.3968
H 16.0685 19.0991 29.0608
H 15.5521 19.2226 27.5165
O 11.2063 7.44222 7.56698
H 11.2578 8.19413 6.90973
H 10.3316 7.48099 8.04996
O 19.5259 25.7015 22.966
H 20.0572 25.9428 23.7781
H 18.8822 24.9709 23.1938
O 17.5958 22.8867 18.5058
H 17.9613 22.5057 19.355
H 17.5876 23.885 18.5647
O 4.89189 12.3808 14.4884
H 4.16876 11.8859 14.0066
H 5.78413 12.0585 14.1721
O 22.3213 9.88526 27.7405
H 21.9233 10.7626 27.4724
H 22.1411 9.20615 27.0289
O 28.8623 20.7822 12.2711
H 28.3326 21.3848 12.8679
H 0.95479 20.5137 12.7336
O 11.5587 3.58281 23.1923
H 10.8937 3.76308 22.4676
H 11.0875 3.21031 23.9919
O 7.08856 19.66 12.9694
H 6.85023 19.3728 13.8971
H 6.25668 19.7345 12.4195
O 27.7788 26.3773 1.75419
H 27.5201 25.7999 2.52856
H 26.9548 26.6914 1.28272
O 16.5424 28.4117 12.7928
H 15.7372 27.965 12.4028
H 16.5429 29.3789 12.5386
O 13.3345 2.95333 25.3795
H 13.1207 3.11605 24.4162
H 12.5658 3.24974 25.9462
O 9.35728 12.374 21.1954
H 9.17014 12.282 20.2174
H 8.88086 13.1778 21.5517
O 13.0253 23.9999 11.6295
H 13.8791 24.3095 11.2111
H 13.2314 23.4043 12.406
O 13.3222 12.1714 22.4408
H 14.3042 12.2525 22.6114
H 12.9854 13.0158 22.0244
O 12.8499 22.7414 18.1237
H 12.8842 21.822 17.7321
H 13.5097 22.8098 18.8721
O 24.7119 28.7264 4.98632
H 25.2292 0.828233 5.03692
H 24.3291 28.5148 5.88557
O 25.2807 16.7159 8.62774
H 25.6592 17.6255 8.79912
H 25.9246 16.1854 8.07645
O 9.03423 9.4569 14.9678
H 8.28035 8.80918 15.0779
H 9.83406 8.97888 14.6048
O 26.0623 19.625 11.7464
H 26.8806 20.19 11.8522
H 25.2978 20.0518 12.2295
O 12.9606 15.1234 21.1456
H 12.2952 15.0075 21.883
H 12.7081 15.9158 20.5903
O 21.8078 4.77999 12.8365
H 21.9811 4.80324 13.8211
H 21.7535 3.82968 12.53
O 21.2344 0.868581 24.689
H 20.3694 1.33455 24.503
H 21.4131 0.877663 25.6729
O 25.9002 19.1762 4.43979
H 26.2497 19.4433 3.54169
H 25.2099 18.4611 4.32971
O 2.12371 6.10193 3.79764
H 1.96899 5.36089 3.14425
H 2.64344 6.83299 3.35556
O 5.81445 3.93057 16.2126
H 4.81728 3.92697 16.2877
H 6.07775 3.76589 15.262
O 6.50793 25.7324 7.1486
H 7.42512 26.0733 7.3549
H 6.01313 26.4129 6.60821
O 11.0393 18.343 22.3734
H 11.1812 19.3249 22.2475
H 10.6157 18.179 23.2643
O 28.6016 10.3934 22.5764
H 29.1811 11.1458 22.8896
H 28.3163 9.84348 23.3614
O 2.42814 26.4193 23.0994
H 3.37742 26.574 22.8257
H 1.81554 26.8424 22.4319
O 21.7843 11.6121 18.89
H 20.9139 11.315 19.2825
H 21.7116 11.6298 17.8928
O 6.92338 7.36661 25.4881
H 6.47995 8.07684 24.9414
H 6.31878 6.57309 25.5573
O 25.1353 16.3108 26.9338
H 24.7444 16.7035 26.1013
H 25.1135 15.3128 26.8737
O 15.8526 8.33657 27.1337
H 15.0513 8.42941 26.5426
H 15.8018 7.47016 27.6304
O 17.9863 2.14303 28.3334
H 18.7508 2.68844 27.9896
H 18.1353 1.18046 28.1069
O 22.6877 3.57307 6.71437
H 23.1379 4.44636 6.52794
H 22.1513 3.29761 5.91668
O 15.6146 3.43712 27.3738
H 15.2085 2.97207 26.5871
H 16.3928 2.90636 27.7095
O 4.62577 10.5648 8.55739
H 5.39053 11.1733 8.34571
H 4.95844 9.78185 9.08312
O 1.90206 8.05728 22.2331
H 1.01288 8.40595 21.9368
H 2.60756 8.35321 21.5891
O 11.1368 3.90905 26.765
H 10.5008 3.38137 26.2019
H 10.9857 4.88571 26.6124
O 17.6454 4.82417 20.7809
H 17.9624 5.68775 21.173
H 17.2823 4.98795 19.8637
O 20.9354 4.7893 2.20463
H 19.9535 4.93905 2.32061
H 21.0881 4.14464 1.45556
O 1.3122 27.2654 0.887423
H 29.3024 26.7971 1.3341
H 0.982058 27.7319 28.8193
O 25.273 27.1683 0.700335
H 25.1601 27.7347 28.6365
H 24.4263 27.1777 1.23225
O 12.5327 19.6155 11.4984
H 12.6943 20.3508 12.1566
H 11.67 19.78 11.0201
O 0.792093 3.29431 15.8186
H 28.9622 3.42677 16.6207
H 29.1712 3.80915 15.0469
O 4.62106 19.9763 11.8229
H 5.09758 20.8543 11.8687
H 3.76161 20.0892 11.3243
O 25.3973 2.76252 27.4182
H 26.3646 2.52347 27.3339
H 25.1523 2.824 28.3858
O 18.5621 26.9433 11.6899
H 18.9455 26.3428 12.3917
H 17.7223 27.3637 12.0334
O 3.42631 10.1545 4.69019
H 2.54165 9.7471 4.91689
H 3.57802 10.9611 5.26145
O 25.7188 17.0745 19.9556
H 25.0858 17.848 19.9239
H 26.3042 17.0895 19.145
O 20.4143 9.68373 22.1419
H 21.1742 9.17565 21.7364
H 19.9203 10.1739 21.4239
O 18.7825 19.4634 21.5423
H 19.0463 19.5234 22.5051
H 17.7887 19.3755 21.4739
O 23.5369 24.8206 13.0166
H 24.5023 24.9016 12.7687
H 23.4452 24.845 14.012
O 19.3089 16.0917 24.3212
H 19.1269 17.0664 24.1914
H 19.8557 15.75 23.5568
O 28.5047 6.56838 23.608
H 0.478533 6.75191 22.9456
H 28.591 5.63121 23.9461
O 12.6762 8.50523 1.01559
H 12.1934 8.44075 1.88891
H 13.5166 9.03336 1.13756
O 11.3786 9.29625 5.82945
H 10.8694 8.92411 5.05339
H 11.2717 10.2903 5.85239
O 11.9342 17.3917 19.9664
H 11.5583 17.6815 20.8466
H 11.4246 17.8298 19.2258
O 3.76776 8.6751 20.4363
H 3.81179 7.68885 20.277
H 4.60616 9.10467 20.1008
O 15.8725 2.49699 21.2548
H 15.0641 2.91845 21.6657
H 16.5063 3.21127 20.9579
O 4.70334 27.0511 5.6316
H 3.72177 27.0441 5.82255
H 4.85041 27.0641 4.64256
O 14.4095 3.24559 2.99324
H 14.2613 2.49393 3.63593
H 14.2897 4.11793 3.46724
O 10.3705 1.91843 14.3115
H 10.3467 0.971951 13.9897
H 9.4793 2.34527 14.1579
O 3.51321 21.97 18.7148
H 3.13569 21.168 19.1777
H 4.37116 22.2356 19.1545
O 6.9945 15.0989 17.6231
H 6.31009 14.6381 17.058
H 7.65101 14.4269 17.9658
O 27.4489 19.859 2.37491
H 27.85 19.5842 1.50104
H 27.3598 20.8546 2.40232
O 25.0457 28.8793 27.2575
H 25.1593 28.6727 26.2856
H 25.3822 1.04991 27.4435
O 0.988309 17.6763 8.89122
H 1.6685 17.2014 9.44962
H 28.8464 17.6186 9.33472
O 7.19019 12.7684 5.45273
H 7.62705 12.7876 4.55341
H 6.20025 12.8596 5.34443
O 27.0987 23.3176 11.1952
H 27.7109 23.1581 10.4207
H 26.2028 22.919 10.9996
O 4.08114 17.0186 26.7173
H 3.89169 16.1265 26.3072
H 4.25268 16.9059 27.696
O 25.6113 13.6626 27.0862
H 26.529 14.0462 26.9824
H 25.6633 12.6642 27.0672
O 12.1417 23.9163 8.17958
H 11.7923 22.9808 8.23103
H 12.1761 24.3103 9.09806
O 19.5178 3.89337 26.9433
H 19.1605 4.82732 26.9522
H 19.3861 3.49467 26.0358
O 13.9063 21.7021 13.3137
H 14.5261 20.9345 13.1511
H 13.9781 21.9922 14.268
O 9.10318 3.62825 2.31097
H 9.64613 4.46719 2.34807
H 9.60666 2.92745 1.80561
O 22.1751 11.6762 13.4036
H 22.8024 12.2539 12.8813
H 22.6761 10.8985 13.7832
O 13.8612 12.6436 12.4769
H 14.5183 12.0186 12.0555
H 12.9377 12.4125 12.1707
O 1.83868 10.6132 8.02624
H 2.8246 10.6572 8.18758
H 1.4044 11.4376 8.38944
O 15.7046 1.53384 24.8984
H 14.7881 1.90888 25.0374
H 15.7168 0.98428 24.0631
O 28.7982 29.2344 17.7225
H 28.4139 29.3645 16.8085
H 28.0562 29.1611 18.3888
O 13.9427 17.7218 22.2784
H 12.9565 17.8863 22.2643
H 14.1489 16.888 21.7661
O 26.1124 19.3144 8.83829
H 26.5658 19.738 8.05409
H 26.4812 19.6992 9.68442
O 8.42944 9.41375 23.6109
H 7.7076 9.86195 23.0836
H 9.12391 9.05484 22.9873
O 3.59079 4.65602 8.68815
H 3.4535 5.26945 7.91043
H 4.2385 3.93726 8.43547
O 18.0106 8.78568 18.2336
H 17.1868 8.68997 18.7925
H 17.776 8.65911 17.2698
O 9.32305 20.1734 6.86202
H 9.10442 21.1452 6.95119
H 9.0358 19.8485 5.96096
O 23.9469 6.31867 6.14064
H 23.7063 6.35935 5.17087
H 24.9397 6.24497 6.23492
O 25.8421 13.4716 9.21494
H 25.6496 12.4903 9.20667
H 25.0807 13.957 9.64464
O 23.9884 17.1309 24.474
H 23.1826 16.7305 24.0375
H 24.769 17.0704 23.852
O 6.39999 21.7418 19.3603
H 6.80121 22.4518 19.9391
H 6.34655 20.8848 19.8728
O 9.10804 13.3481 26.9841
H 10.0208 12.9447 27.0487
H 8.5776 12.8628 26.289
O 28.3249 8.92997 24.7997
H 28.3777 8.12363 24.2106
H 28.4476 8.65473 25.7532
O 26.2224 24.2114 21.9492
H 27.0193 24.0035 22.5164
H 26.2785 25.1572 21.6294
O 28.7507 27.6893 27.3211
H 0.828269 27.3164 26.9065
H 28.0654 26.9657 27.4037
O 13.0304 15.4964 24.9872
H 13.275 14.5765 25.2936
H 12.2298 15.4469 24.39
O 2.12575 23.7125 22.9538
H 2.17079 24.7109 22.9209
H 1.63254 23.3744 22.1523
O 16.7788 1.46242 2.20581
H 17.2251 1.45679 1.31094
H 15.991 2.07785 2.18151
O 15.9981 19.5978 21.2332
H 15.2741 18.9159 21.3371
H 16.2028 19.7213 20.2622
O 11.8752 26.4337 11.9753
H 11.3301 26.3079 12.8042
H 12.3369 25.5767 11.7467
O 28.9599 16.5183 29.2126
H 28.0657 16.863 28.9269
H 0.894475 17.235 0.34066
O 1.48027 8.2201 9.34426
H 1.52227 8.96094 8.6739
H 1.34137 7.35006 8.87126
O 23.6208 12.7912 11.1391
H 23.6019 13.7886 11.209
H 23.0298 12.4985 10.3875
O 18.4414 25.2627 27.7309
H 17.5539 25.0352 27.3301
H 18.4532 24.988 28.6923
O 26.5137 25.7484 27.4426
H 25.9148 25.8825 26.653
H 26.0204 25.9862 28.2793
O 28.9068 2.93341 19.9852
H 28.7961 2.16134 20.611
H 28.9241 2.5989 19.043
O 3.29876 8.34368 2.57454
H 4.26681 8.09668 2.61781
H 3.12746 9.12656 3.17267
O 3.41183 5.20414 13.1726
H 3.47227 4.60225 13.9689
H 2.45481 5.44169 13.0062
O 8.81116 4.74347 5.08665
H 8.07356 5.33782 5.40713
H 8.74288 4.63257 4.09516
O 14.7447 10.37 1.8166
H 15.107 10.3238 2.74752
H 15.5023 10.371 1.1638
O 15.5353 28.988 22.4975
H 16.3981 28.4866 22.562
H 15.6709 1.06363 21.9537
O 23.9059 14.9535 20.6232
H 24.1887 14.0156 20.4227
H 24.6402 15.5841 20.372
O 18.6201 21.6908 16.2543
H 18.0771 22.1185 16.9769
H 18.2211 21.9095 15.3638
O 26.9399 14.7262 7.09418
H 26.1616 14.9277 6.49956
H 26.6427 14.134 7.84313
O 21.4721 2.92517 28.7016
H 20.6854 3.29892 28.2103
H 21.6913 2.01907 28.3397
O 16.152 24.626 26.6265
H 15.7292 23.9128 27.1856
H 15.515 24.9086 25.9093
O 8.78317 3.24517 12.3451
H 9.5943 3.82759 12.2917
H 8.4217 3.09194 11.4254
O 27.385 1.06318 15.5476
H 26.645 1.24954 14.9013
H 28.1931 1.59341 15.291
O 6.99625 19.1808 21.4498
H 6.99307 19.4758 22.4052
H 7.88019 19.3993 21.0364
O 8.52655 12.8577 3.04583
H 9.44998 12.528 3.24221
H 8.58047 13.7271 2.5546
O 15.7421 12.6553 27.4375
H 15.9168 13.611 27.6743
H 15.9558 12.0731 28.222
O 28.4794 4.59855 13.616
H 29.038 5.42574 13.5549
H 28.4304 4.16235 12.7175
O 16.6872 10.0582 28.8635
H 16.5825 9.44881 28.0776
H 17.5634 10.5359 28.8005
O 13.669 12.8116 25.815
H 13.4794 11.8923 25.4701
H 14.5349 12.808 26.3151
O 16.7524 4.87224 11.2742
H 17.4525 5.30911 10.7095
H 15.9114 5.41229 11.2395
O 1.50564 6.58668 6.39399
H 1.75842 6.24848 5.4875
H 1.28197 7.55964 6.33631
O 19.4159 22.595 10.9518
H 19.8193 23.373 11.4336
H 18.4303 22.574 11.1192
O 24.3736 27.9611 20.9194
H 24.0367 28.5142 21.6814
H 24.013 27.0317 20.9971
O 6.20382 19.0469 15.5389
H 6.94402 18.3751 15.5675
H 6.51762 19.906 15.9433
O 23.3551 26.3327 23.2934
H 22.5793 26.4972 23.9025
H 23.0188 26.0786 22.3865
O 8.42538 27.4886 6.41967
H 9.23509 27.1564 5.93593
H 7.93491 28.1398 5.84053
O 7.08115 16.9841 29.378
H 7.76579 16.2855 0.833216
H 6.23735 16.5433 29.0719
O 11.5725 5.51667 5.4861
H 10.6541 5.12923 5.56654
H 11.6966 6.22664 6.17929
O 1.5869 20.4685 9.71357
H 0.990048 20.4585 10.5159
H 1.36153 19.6953 9.12085
O 17.7152 24.7287 9.08427
H 18.3625 25.1176 8.42868
H 17.3904 23.8449 8.74772
O 23.3206 1.14475 22.5518
H 24.2058 1.60776 22.5974
H 22.9231 1.09471 23.468
O 29.1634 14.0103 29.0066
H 29.1035 13.5561 1.143
H 29.0581 14.9972 29.1288
O 20.4563 6.28267 20.3907
H 19.6666 6.31167 21.0035
H 20.1442 6.14039 19.4513
O 8.13854 2.37108 9.6218
H 8.4485 1.43629 9.79531
H 8.48017 2.67591 8.73278
O 3.09338 18.0486 1.80539
H 2.72497 17.4992 2.55531
H 3.00494 19.0193 2.02871
O 27.5541 0.886791 21.4225
H 27.2027 1.68441 21.9127
H 27.0341 0.758758 20.578
O 28.9066 22.8298 9.2907
H 28.9534 23.3513 8.43869
H 0.82964 22.0929 9.26798
O 16.5854 2.18863 11.4877
H 16.4851 3.18165 11.4257
H 17.3629 1.89674 10.9306
O 27.8993 23.9196 29.0548
H 27.4753 24.2331 28.2052
H 28.4665 24.6508 0.681374
O 12.1425 17.8579 25.6298
H 12.5857 18.6521 25.2142
H 12.707 17.0458 25.4819
O 7.5713 20.0835 24.3442
H 7.16507 20.3285 25.2245
H 8.08331 19.2298 24.4395
O 18.2308 7.37737 21.7728
H 19.0586 7.93622 21.7234
H 17.9246 7.31854 22.7229
O 9.07113 14.878 1.07546
H 9.16524 14.6899 28.8503
H 9.94713 15.1938 1.43996
O 9.98477 11.6484 16.4131
H 10.9215 11.3125 16.5119
H 9.43482 10.9657 15.9321
O 0.952402 6.64238 12.4966
H 0.779183 7.61483 12.6526
H 1.10006 6.48251 11.5206
O 10.9433 26.9777 5.41241
H 11.3472 26.1868 4.95266
H 11.6664 27.6186 5.67023
O 15.7615 24.9881 10.9619
H 15.3842 25.9141 10.976
H 16.5734 24.9678 10.3784
O 14.403 27.4251 11.3895
H 13.4859 27.1378 11.6658
H 14.3508 28.3134 10.9333
O 26.9446 13.1979 19.4708
H 25.9824 13.0499 19.2421
H 27.1365 12.8096 20.3722
O 28.1643 14.355 26.3795
H 28.6522 15.1573 26.0355
H 28.5509 14.0823 27.2605
O 10.2155 28.6375 12.3451
H 9.93816 29.1639 11.5414
H 10.9811 28.0408 12.1048
O 21.914 3.34374 16.693
H 21.7764 2.99736 17.6209
H 21.3827 2.79278 16.0494
O 9.17724 13.2726 10.2559
H 9.38246 14.247 10.1647
H 8.67199 12.9616 9.45087
O 17.5087 8.90758 5.49124
H 17.7605 8.70767 4.54434
H 17.9978 8.28714 6.10431
O 24.2121 12.4119 19.7291
H 24.4322 11.8094 20.4963
H 23.3425 12.1306 19.3233
O 13.8322 19.8121 24.041
H 13.4113 20.5453 23.5069
H 14.2479 19.1455 23.4224
O 11.4742 7.97622 27.5963
H 12.1877 7.80639 26.9165
H 11.8968 8.2192 28.4695
O 13.567 28.5613 6.00031
H 13.4461 27.5745 6.10746
H 14.5348 28.7916 6.10247
O 16.4773 14.8708 28.5337
H 15.9935 15.7276 28.7124
H 17.1988 15.0298 27.8597
O 26.1413 4.79158 15.4787
H 26.869 4.93631 14.8083
H 26.5448 4.56025 16.3639
O 9.11372 20.4588 20.2484
H 9.165 21.4526 20.3478
H 9.56201 20.1855 19.3973
O 12.8372 10.3536 24.4578
H 13.1227 10.9922 23.7432
H 11.8392 10.3471 24.5197
O 3.03031 16.1091 15.302
H 2.11568 15.9133 14.9482
H 3.29431 17.0393 15.0469
O 17.0982 8.01471 15.8844
H 16.7994 8.81085 15.3582
H 16.7439 7.18192 15.4591
O 23.3837 5.04536 15.2151
H 24.3456 5.09335 15.4845
H 22.8625 4.56969 15.9236
O 1.69871 4.27249 21.9101
H 0.857872 4.21346 22.4482
H 1.53033 3.9215 20.989
O 4.6034 14.1827 16.3682
H 4.10209 14.9869 16.049
H 4.6228 13.4931 15.6442
O 18.7526 22.0684 20.7085
H 18.6356 21.1667 21.1249
H 19.5668 22.5077 21.0881
O 21.3725 26.9598 24.8394
H 21.1166 27.9114 24.6694
H 21.5089 26.8214 25.8204
O 1.2873 5.20947 9.87563
H 29.4325 5.3312 9.09057
H 2.23484 5.16115 9.55966
O 4.49435 16.0901 29.1931
H 4.0166 16.8 0.958168
H 4.30573 15.1966 0.847947
O 16.5567 19.8524 18.4832
H 16.9509 19.3335 17.7246
H 16.9691 20.7629 18.5141
O 6.72755 22.0258 22.6886
H 6.96675 21.4517 23.4717
H 6.26716 22.8533 23.0102
O 12.3709 25.3741 4.04621
H 12.9064 25.3196 3.20341
H 11.7653 24.5807 4.10819
O 5.2054 8.69387 23.6822
H 4.45894 8.03784 23.5708
H 5.7186 8.76334 22.8268
O 9.94501 21.6173 23.6913
H 9.16988 20.9856 23.7032
H 9.66118 22.5003 24.0652
O 7.05347 25.5912 23.5016
H 7.40269 26.0282 22.6727
H 6.20181 25.111 23.2918
O 28.1742 1.72011 27.2886
H 28.6644 2.03643 26.4765
H 28.3159 29.4892 27.4016
O 20.7697 6.16091 10.524
H 21.0132 5.64378 11.3445
H 20.3023 7.00457 10.7883
O 23.2101 20.0918 12.1258
H 23.3748 19.4263 12.8538
H 22.2518 20.0467 11.8436
O 22.0032 29.223 27.2055
H 22.9829 29.3926 27.0984
H 21.8557 28.265 27.4513
O 22.5712 11.1961 1.51001
H 22.7568 10.6867 29.4223
H 23.2578 11.9143 1.62287
O 10.8134 19.047 17.9968
H 11.5992 19.2537 17.4139
H 10.081 18.6529 17.4415
O 24.9874 24.3135 24.8627
H 24.5228 24.7564 24.096
H 25.763 23.7828 24.5209
O 25.9224 17.3983 22.6542
H 25.858 17.2103 21.6742
H 26.5063 16.7118 23.0876
O 23.9405 19.0614 19.41
H 24.1739 20.026 19.287
H 23.0031 18.986 19.7498
O 8.1093 23.1847 20.6944
H 8.82645 23.6753 21.1893
H 7.54269 22.678 21.3441
O 12.9546 17.5234 12.8652
H 12.8715 18.418 12.4262
H 13.5256 16.927 12.301
O 6.41776 3.3176 13.5972
H 7.29372 3.35387 13.1162
H 5.67109 3.34794 12.9327
O 27.7706 17.0184 17.9318
H 28.0141 16.0813 17.6817
H 28.5931 17.5126 18.2136
O 21.4748 26.0722 10.134
H 20.8491 25.8072 10.8676
H 22.1339 26.7386 10.4825
O 29.0666 22.745 21.1817
H 28.5575 23.2154 20.4609
H 28.9091 21.7599 21.1125
O 13.6948 20.2968 17.2895
H 14.4661 19.8461 17.739
H 13.3873 19.7402 16.5177
O 8.65922 6.97814 27.4887
H 8.23331 7.34523 26.6617
H 9.58153 7.35287 27.5831
O 8.06727 19.3265 1.77721
H 7.38763 20.0568 1.84572
H 7.64889 18.5199 1.35954
O 11.8845 21.0957 7.98777
H 11.1402 20.5672 7.5794
H 12.7329 20.5684 7.94011
O 23.4219 6.61423 8.88279
H 23.4826 6.30023 7.93531
H 22.4942 6.46449 9.22478
O 10.3527 9.82833 25.5092
H 10.5326 9.27559 26.3229
H 9.62605 9.40188 24.9705
O 9.01978 24.0936 24.8374
H 9.71623 24.7025 25.2172
H 8.38767 24.6224 24.271
O 20.583 24.8361 12.6697
H 20.0438 24.8964 13.5097
H 21.5566 24.8354 12.8979
O 22.3966 16.379 22.3434
H 23.0441 15.9987 21.683
H 21.5023 15.9491 22.2187
O 19.5211 13.1244 17.6701
H 19.8947 12.6232 16.8895
H 20.0651 13.9485 17.8283
O 13.7811 22.6253 6.18697
H 13.2055 21.847 5.93617
H 13.2593 23.2535 6.76412
O 25.7058 20.1944 27.0121
H 24.8277 20.6273 27.2162
H 25.7629 20.0022 26.0324
O 27.7936 4.4876 17.8326
H 27.3864 5.39469 17.9392
H 28.0722 4.14001 18.7279
O 20.9943 23.7693 8.77604
H 21.4013 24.5875 9.18211
H 20.3308 23.376 9.41251
O 25.9692 25.0154 18.207
H 26.1053 25.5992 17.4066
H 25.0573 25.1753 18.585
O 15.302 22.3117 28.3356
H 15.1604 21.3223 28.3667
H 15.4963 22.6497 29.2565
O 9.09264 2.97523 7.0378
H 8.89871 3.60579 6.28628
H 9.99041 2.55724 6.89893
O 26.8016 17.8629 28.2165
H 26.1642 17.1898 27.8417
H 26.5642 18.7726 27.8757
O 23.9626 23.0316 20.7948
H 24.8658 23.2549 21.1612
H 24.0469 22.2898 20.1295
O 19.3712 10.5796 19.7755
H 18.9974 9.90807 19.1357
H 18.7121 11.3207 19.9037
O 25.5374 2.6661 22.7814
H 25.1941 3.13241 21.9661
H 25.418 3.25758 23.5788
O 19.9893 10.6024 12.0784
H 20.7967 10.9389 12.563
H 19.8145 11.1797 11.2808
O 15.146 22.6397 20.4473
H 15.3973 21.7686 20.8692
H 15.9562 23.2216 20.3762
O 22.3095 25.6859 1.51926
H 22.3193 26.3902 2.22916
H 22.0238 24.8146 1.9181
O 13.5869 25.7431 6.43854
H 13.1951 25.1387 7.13223
H 13.2616 25.4673 5.53403
O 19.8395 18.9844 24.2252
H 19.2574 19.5134 24.8426
H 20.7857 19.0201 24.5468
O 2.39099 16.5494 3.93448
H 2.41255 17.0236 4.81463
H 1.51992 16.0681 3.83642
O 21.9058 12.7223 8.6809
H 22.4232 12.1561 8.03923
H 21.7181 13.6117 8.26421
O 18.3874 16.3559 27.0309
H 18.2638 17.3027 26.7338
H 18.7364 15.8103 26.269
O 26.3841 26.1478 15.7184
H 26.564 27.0348 15.2933
H 26.7179 25.4182 15.1215
O 4.30791 3.63246 11.1698
H 4.00742 4.29283 11.858
H 4.17934 4.02038 10.2572
O 28.5959 14.4362 17.4623
H 0.752517 14.1575 17.7717
H 27.9002 13.9468 17.9882
O 28.119 21.3263 28.0097
H 27.3665 20.7914 27.6252
H 27.7573 22.1637 28.4194
O 28.2801 3.64756 23.5669
H 28.538 2.82928 24.0806
H 27.2879 3.66445 23.443
O 9.9006 18.9182 9.45463
H 9.86779 19.5562 10.224
H 9.94163 19.4315 8.59743
O 28.9788 3.102 11.2601
H 0.578468 3.8506 10.6983
H 0.84491 2.31879 11.1975
O 24.4825 22.5158 10.8678
H 23.9351 21.7267 11.1464
H 24.0845 22.9243 10.0463
O 21.6915 18.8266 21.0664
H 22.0768 18.2271 21.768
H 20.7112 18.9411 21.2275
O 29.3182 9.20582 5.8579
H 0.974952 9.74153 6.5965
H 28.6594 9.7712 5.36156
O 19.3788 24.9238 15.1222
H 19.1945 23.9671 15.3473
H 19.2346 25.4908 15.9331
O 18.2119 9.02346 2.7124
H 17.5212 9.69322 2.43957
H 19.1237 9.39454 2.53678
O 15.2111 27.8619 2.88982
H 15.5314 27.7922 3.83456
H 15.6277 28.66 2.45464
O 20.2018 10.7029 2.64969
H 21.0879 10.9574 2.26224
H 20.1849 10.9332 3.62264
O 21.3625 26.2868 27.7477
H 21.6341 26.0615 28.6834
H 20.4402 25.9405 27.5758
O 5.30053 24.1086 9.24633
H 5.70373 24.3532 8.36451
H 4.45052 23.6038 9.09565
O 17.7236 25.6254 18.7561
H 16.8654 26.1315 18.8409
H 18.4235 26.2198 18.3599
O 3.8395 18.5442 14.2159
H 3.99884 18.7953 13.2612
H 4.71665 18.3922 14.6715
O 19.5559 17.2359 2.53434
H 20.0761 16.8884 1.75421
H 19.1827 16.4679 3.05485
O 19.3704 25.2607 7.07329
H 19.8069 26.0436 6.63002
H 20.0697 24.6844 7.49614
O 16.0713 26.5666 7.77111
H 15.2095 26.191 7.43026
H 16.5519 25.869 8.30255
C 22.777 16.3733 10.9504
O 23.7567 15.4146 10.5431
H 24.2858 15.8883 9.91969
C 10.1942 21.9325 12.1136
O 9.87163 20.5602 11.8736
H 9.10676 20.2685 12.3458
C 17.0316 23.1966 5.96659
O 16.3554 22.6039 7.0785
H 15.4297 22.5612 6.89345
C 11.8048 1.38804 29.037
O 10.7215 2.23716 29.4247
H 10.6593 2.81592 28.6802
C 8.88599 28.2539 24.0635
O 8.02689 28.9329 24.9831
H 8.23009 28.6074 25.8467
C 18.2431 29.2053 8.94616
O 18.7064 29.2053 10.299
H 18.4292 28.3838 10.6749
C 25.4172 1.0997 18.2504
O 26.2911 29.1069 19.1023
H 25.7392 28.783 19.7977
C 19.1306 5.72922 16.5019
O 19.2351 6.34235 17.7895
H 18.646 7.0793 17.8437
C 6.2405 9.31685 28.1539
O 7.11932 8.47635 28.9064
H 7.60513 7.89825 28.3382
C 10.2321 26.9343 1.86314
O 9.35081 27.0572 0.743693
H 9.16728 26.166 29.2411
C 27.1358 16.3632 11.6305
O 27.8216 17.3015 10.7974
H 27.198 18.0056 10.7056
C 27.2731 20.4668 18.2042
O 25.9355 20.3951 17.7035
H 25.71 19.4886 17.5605
C 25.4639 10.0581 21.623
O 26.238 11.2577 21.5401
H 27.077 11.0506 21.9224
C 2.24345 18.9058 18.2963
O 1.05566 18.3393 18.8559
H 0.885842 18.7886 19.6697
C 24.0953 4.92314 0.796452
O 23.9889 3.49899 0.869726
H 23.1214 3.28385 29.3152
C 26.1261 0.975221 9.93518
O 24.8984 0.740582 10.6298
H 24.2569 1.37024 10.3381
C 1.98506 20.9534 3.40493
O 3.00355 20.8417 2.40738
H 2.48245 21.2744 1.74841
C 21.9431 2.08212 9.79293
O 23.1796 2.32818 9.11814
H 23.0016 2.87642 8.36931
C 22.885 29.1727 2.0883
O 23.2984 28.0073 2.80648
H 23.9485 28.2724 3.43903
C 15.5947 4.2676 17.9056
O 16.1026 5.40007 18.6158
H 15.4778 6.10415 18.5333
C 4.84583 8.41234 11.5561
O 4.38482 8.20113 10.219
H 3.45086 8.27479 10.0953
C 26.6156 9.54422 8.34201
O 25.9462 10.6952 8.86362
H 25.1354 10.3188 9.17005
C 1.63088 24.1117 6.04092
O 0.939487 24.4811 7.23691
H 1.23255 25.317 7.56634
C 19.9709 8.00142 7.77275
O 19.1642 7.1421 6.96302
H 18.8771 6.3993 7.47179
C 2.87731 1.17724 2.4507
O 2.49788 28.6423 2.94414
H 2.69384 28.0256 2.25543
C 25.6664 10.23 26.4856
O 24.7353 10.9555 27.2929
H 24.0482 10.3282 27.4585
C 11.4493 5.8291 2.04902
O 10.4007 6.10788 2.98049
H 10.703 5.95554 3.86275
C 27.5699 10.4244 17.2095
O 27.9548 9.24949 16.4909
H 28.6623 9.50997 15.9211
C 12.672 13.1531 2.81698
O 11.7083 13.2788 3.86603
H 11.7794 14.1785 4.14621
C 2.5307 5.19791 29.3301
O 1.46205 5.13392 1.52564
H 1.04409 5.97836 1.5982
C 6.47913 26.1572 2.52425
O 5.27159 26.8565 2.83684
H 4.60756 26.4244 2.32171
C 21.7753 15.7034 28.7048
O 20.6209 16.5349 28.8493
H 19.9834 16.4444 28.1577
C 14.1626 25.8185 18.9241
O 15.2702 26.7003 18.7225
H 14.9256 27.5785 18.7765
C 7.98943 12.5671 13.3866
O 7.53204 11.2291 13.6002
H 8.24404 10.7397 13.9831
C 4.11699 13.2848 6.52545
O 4.65282 12.8984 5.25718
H 4.47227 13.5488 4.5958
C 6.33858 4.32997 29.2116
O 5.6969 3.98397 1.68935
H 6.33177 4.18414 2.3601
C 4.38237 5.35625 19.9357
O 3.08915 5.88982 20.232
H 2.74063 5.46538 21.0011
C 22.1718 18.1746 7.45193
O 22.5545 16.8475 7.82232
H 23.4927 16.8594 7.93524
C 6.06772 15.5259 3.70704
O 4.77238 14.9764 3.45217
H 4.22966 15.721 3.66191
C 24.8414 8.74837 2.03623
O 25.2854 9.4263 0.85804
H 24.9821 10.315 0.964306
C 24.6068 10.0294 14.9923
O 23.7492 9.7167 13.8915
H 23.9244 8.83694 13.5942
C 6.23198 23.4625 12.5762
O 5.82194 22.5067 11.5948
H 5.70079 23.0073 10.8024
C 12.7912 11.7945 18.8804
O 13.0017 11.6818 17.4705
H 12.9978 12.5454 17.0869
C 13.9058 13.7119 8.85202
O 14.7389 14.8234 9.19146
H 14.5095 15.2097 10.0229
C 28.6093 18.9619 22.0504
O 29.2086 20.0078 21.2812
H 1.34774 20.1409 21.5644
C 22.3404 19.281 26.9168
O 22.1976 18.729 25.6054
H 22.9969 18.3154 25.3173
C 7.88658 16.108 6.92917
O 7.01091 15.0288 7.26622
H 7.34211 14.2164 6.91503
C 27.817 6.8576 27.175
O 28.6619 8.00137 27.3261
H 29.0726 8.16368 28.1615
C 5.38156 19.9444 27.6491
O 5.34732 20.0292 26.2221
H 5.08253 19.1493 26.0015
C 15.4448 9.7441 21.2664
O 16.0756 8.63185 20.6262
H 16.4518 8.18701 21.3703
C 20.2706 28.4347 17.4137
O 19.436 27.3019 17.1589
H 18.7801 27.5723 16.5345
C 7.28864 1.5045 4.1097
O 7.24169 28.9651 4.72105
H 6.5916 28.3922 4.34403
C 16.3894 13.9967 23.2741
O 15.9591 12.7541 22.7123
H 16.0906 12.7912 21.7772
C 18.2355 7.74985 12.4384
O 19.0256 8.10588 11.3009
H 19.2529 9.01402 11.4298
C 2.73793 7.28193 25.4159
O 3.00574 6.71809 24.1293
H 2.43907 7.15479 23.5119
C 14.0288 25.6693 29.1502
O 14.0797 25.6566 1.82669
H 14.2816 26.5393 2.09701
C 25.6919 7.26094 12.5933
O 24.3366 7.37431 13.035
H 23.9266 6.52431 12.9859
C 19.1855 2.57542 14.1532
O 20.4636 2.30218 14.7336
H 20.8854 1.7066 14.1333
C 13.5456 1.38613 18.9387
O 14.8105 0.778689 19.2143
H 15.266 1.40092 19.7605
C 2.76764 26.8179 17.0484
O 2.45896 27.7309 18.1047
H 1.77184 28.2567 17.7246
C 24.9531 22.9416 7.13702
O 26.0529 22.7755 6.23821
H 26.5467 22.0152 6.50503
C 28.6602 24.1215 25.1928
O 27.9733 23.9675 23.9481
H 28.6504 23.4577 23.5302
C 4.86557 28.9267 23.88
O 5.38762 29.0896 25.2013
H 6.31893 28.9584 25.1092
C 6.9037 15.605 25.9667
O 8.18239 15.5246 25.3316
H 8.725 14.9254 25.821
C 2.40372 15.3445 19.275
O 2.66839 14.2249 18.4256
H 3.41286 14.4826 17.9037
C 26.6946 27.4771 24.3473
O 25.3582 27.5424 24.8518
H 24.7865 27.3369 24.1279
C 12.6991 22.2614 25.9585
O 12.5878 22.8737 27.2459
H 13.4273 22.785 27.6707
C 11.3378 19.7187 14.7213
O 12.2555 18.8204 15.3504
H 12.535 18.2724 14.6331
C 18.1143 16.8073 19.3609
O 18.1956 16.8179 20.7885
H 18.5075 17.6819 21.0103
C 7.08891 25.167 18.0634
O 8.4698 24.9021 18.3239
H 8.43658 24.3275 19.0734
C 10.8605 24.942 21.9377
O 9.5876 25.475 21.5628
H 9.7412 26.0658 20.8414
C 29.1438 26.7282 20.3467
O 29.0259 27.3279 21.6395
H 28.5371 28.1092 21.4309
C 8.59912 3.77851 24.5817
O 9.4244 2.67525 24.9646
H 8.76051 2.0371 25.1768
C 16.9704 28.2791 26.9121
O 18.2666 28.107 27.491
H 18.4068 27.1748 27.424
C 21.7734 16.0011 18.6515
O 21.4954 15.2863 17.4445
H 22.1862 15.38 16.8065
C 10.7681 24.8046 15.1101
O 10.4478 25.8473 14.1854
H 9.77099 26.3631 14.5963
C 10.214 14.3862 18.6076
O 9.18743 13.487 18.1803
H 9.4807 13.0707 17.3843
C 26.3097 13.7759 23.5301
O 26.7213 14.9799 24.1826
H 27.1524 14.8449 25.0127
C 22.9709 8.29555 18.3737
O 22.4389 8.367 19.6991
H 21.9579 7.55851 19.7885
C 23.3284 23.56 27.9282
O 23.8947 22.5814 27.0527
H 24.127 23.0385 26.2589
C 21.9605 13.232 25.5536
O 21.7603 11.9968 26.2458
H 21.092 11.5614 25.739
C 6.29589 10.8056 20.9925
O 6.71326 9.4486 21.1638
H 6.49117 8.93281 20.4038
C 28.4858 19.8062 6.53185
O 27.1455 20.3028 6.49005
H 26.7326 19.8702 5.75838
C 18.6819 21.4453 27.1197
O 18.3332 20.5822 26.0341
H 17.4098 20.6827 25.8598
C 6.97197 15.3164 21.622
O 8.08539 14.7882 22.3474
H 7.97741 15.2266 23.1775
C 22.9852 9.3099 10.62
O 23.5869 9.12207 9.33641
H 23.7637 8.22648 9.09208
C 8.8556 16.6194 15.5684
O 8.49638 17.3258 16.7587
H 8.09276 16.7696 17.4074
C 29.2246 14.2328 13.5725
O 29.4058 14.9715 14.7835
H 28.8994 14.6275 15.5033
C 6.00308 14.1232 10.1043
O 5.29075 14.9948 9.22236
H 5.87339 15.0072 8.47844
C 28.175 7.59914 19.293
O 27.4443 7.20168 18.1298
H 27.7402 7.7244 17.4003
C 5.70185 9.40875 17.5651
O 6.02923 8.537 18.6503
H 6.15691 7.65474 18.3367
C 6.69437 25.1643 27.2496
O 7.69633 24.7664 28.1891
H 8.34601 24.4596 27.5753
C 5.10755 27.2956 10.4325
O 4.3777 26.1189 10.7898
H 4.91659 25.4759 10.3549
C 10.4578 13.5778 24.0284
O 10.6587 14.7211 23.1933
H 9.87941 14.7983 22.6644
C 6.31616 11.7386 24.6559
O 7.70138 11.8963 24.974
H 8.12622 11.1348 24.6097
C 12.1529 4.23191 9.89576
O 12.1363 5.64431 10.1188
H 11.8361 6.07763 9.33452
C 20.2117 16.5663 14.1754
O 19.5117 17.6339 14.8197
H 20.1539 18.1939 15.2282
C 19.8525 19.2141 11.1344
O 20.8108 20.2747 11.0912
H 20.3546 21.0999 11.0291
C 16.7096 28.7274 16.32
O 17.5336 27.9683 15.4314
H 17.1864 28.0309 14.5547
C 4.18539 25.6955 20.5841
O 4.87299 26.7531 21.2576
H 4.52925 27.4741 20.7526
C 12.9638 5.14514 13.3815
O 11.9551 5.96913 12.7912
H 11.8101 5.66101 11.9097
C 17.6351 12.8434 13.6148
O 17.657 11.6097 12.892
H 18.5552 11.4055 12.6807
C 11.0513 27.066 26.4083
O 10.9565 25.9102 25.5716
H 11.8141 25.8778 25.176
C 2.62084 9.30046 15.6763
O 1.39273 9.90681 15.2652
H 1.6121 10.4199 14.5025
C 1.7569 11.4915 27.251
O 2.12618 12.8725 27.2123
H 1.52465 13.3937 27.7217
C 8.6343 21.7643 16.779
O 7.3383 21.165 16.7012
H 6.82721 21.4647 17.4374
C 27.4639 16.4301 4.30967
O 28.2205 15.248 4.5837
H 28.0947 15.1508 5.51524
C 1.15183 29.3704 24.1446
O 1.07198 1.61176 25.1697
H 1.88751 1.40383 25.5995
C 2.82375 29.5142 12.5042
O 2.55182 1.50123 11.3108
H 3.22999 2.15196 11.2125
C 19.1747 4.01272 8.31532
O 18.8047 5.25087 8.92771
H 19.4788 5.44946 9.55948
C 20.1709 13.5106 21.5088
O 19.7582 14.8296 21.8761
H 19.0416 15.1854 21.3731
C 12.2374 28.3141 22.402
O 13.308 27.7641 23.1741
H 14.1661 28.1154 22.9919
C 2.64987 5.85971 16.5941
O 3.20212 4.59851 16.2077
H 2.42752 4.10701 15.9808
C 12.1277 21.3253 21.016
O 12.1908 21.2306 22.4415
H 11.3373 21.3468 22.83
C 14.8177 10.7529 5.48099
O 15.5214 10.2007 4.36533
H 16.2386 9.69504 4.71608
C 15.2294 5.96176 1.01815
O 16.043 6.08614 28.6012
H 15.8976 5.25163 28.1823
C 8.08347 6.5331 22.1867
O 8.66124 6.20056 20.9216
H 9.16595 6.94849 20.6407
C 11.0998 1.70636 4.66978
O 11.843 2.23288 5.77219
H 12.5943 1.68406 5.93766
C 17.4496 14.0312 3.43325
O 17.9269 15.3066 3.86964
H 17.4661 15.5937 4.64317
C 5.32143 5.85418 4.61778
O 6.61159 6.38424 4.93306
H 6.8251 7.18271 4.47493
C 29.3203 27.6569 5.18007
O 1.96746 27.3652 5.20712
H 2.22995 27.6569 4.34743
C 17.6171 5.45959 3.92645
O 18.7108 6.22703 3.41679
H 18.3243 7.06659 3.21994
C 3.56988 20.1257 23.0878
O 3.05197 20.7161 21.8928
H 3.50674 21.541 21.8172
C 27.5954 2.45384 1.84781
O 28.2721 3.46884 2.59404
H 28.9122 3.72392 1.94738
C 10.7439 28.3696 8.71358
O 9.63336 28.758 9.52644
H 8.87935 28.2184 9.34381
C 24.6809 4.78286 19.4702
O 24.7037 4.73654 20.8992
H 24.0772 5.35976 21.2341
C 7.06077 19.1639 4.80778
O 8.39783 18.8149 4.4398
H 8.36911 18.7044 3.50172
C 24.0571 16.3564 2.23157
O 23.9597 16.8372 3.57478
H 23.2095 17.4091 3.51928
C 14.5975 24.6958 23.4523
O 14.3813 25.6341 24.5096
H 14.2726 26.5109 24.1741
C 4.84002 23.0767 25.1735
O 4.89531 23.614 23.8495
H 4.07642 23.5063 23.3903
C 2.61072 24.4895 2.31921
O 3.32005 25.6156 1.79606
H 2.66217 26.1454 1.37238
C 14.3324 22.5557 2.81807
O 15.2452 23.2833 1.99206
H 14.8424 24.1267 1.85242
C 4.99838 4.0551 24.1421
O 5.14578 5.22366 24.9531
H 4.56784 5.86605 24.5705
C 25.1784 20.9675 23.691
O 25.4853 19.7109 24.3005
H 25.3715 19.0119 23.6748
C 1.95844 11.4096 19.7724
O 2.49278 12.5432 20.4612
H 2.64324 13.1083 19.7189
C 27.2419 18.0271 14.9291
O 26.2375 17.8243 15.9266
H 26.7092 17.4322 16.6455
C 7.557 0.715662 28.3145
O 8.3512 28.5856 27.5175
H 8.68797 28.0966 28.2527
C 10.6269 12.7748 6.87571
O 10.4949 11.8643 5.78096
H 10.9079 12.3593 5.09004
C 26.0951 22.0079 14.4493
O 27.3297 22.452 13.8807
H 27.2258 22.9982 13.1165
C 7.38383 0.743267 16.9584
O 6.88963 1.90834 17.6242
H 6.89637 2.58813 16.9678
C 9.96724 28.3616 19.2387
O 10.2513 26.9692 19.3986
H 9.78632 26.4097 18.7954
C 13.4655 6.84457 24.3506
O 13.3131 7.77458 25.4261
H 13.2754 8.64945 25.0708
C 21.0513 26.9036 4.95408
O 20.774 27.3788 6.274
H 21.5925 27.7608 6.55189
C 12.4753 9.25952 13.496
O 11.2909 8.464 13.5923
H 11.4567 7.59619 13.257
C 0.757552 3.17936 6.04615
O 28.2602 3.30686 5.3632
H 28.3735 3.26945 4.42577
C 12.4802 15.8905 28.9715
O 11.829 15.986 1.48851
H 11.5144 16.8594 1.66537
C 4.88142 20.9992 8.28515
O 3.72387 21.8384 8.31
H 3.00663 21.2734 8.5535
C 7.05817 6.58067 13.7254
O 7.0566 7.56653 14.7613
H 7.045 7.00443 15.5208
C 29.1842 14.1198 9.64349
O 28.9343 12.8456 9.04454
H 28.0112 12.6895 8.91559
C 26.569 11.6316 5.39312
O 27.4607 11.1662 4.37662
H 27.7873 11.9792 4.02239
C 14.2722 6.75086 4.62187
O 14.1634 5.36144 4.94214
H 13.2355 5.23504 5.06897
C 7.02399 27.4117 14.0117
O 8.43005 27.5369 14.2402
H 8.83604 27.9245 13.4799
C 13.2509 28.0814 15.1445
O 12.8802 28.0426 16.5251
H 12.5311 28.9107 16.6573
C 8.46604 5.79751 17.5008
O 7.18305 6.2805 17.0939
H 6.59446 5.54707 17.0008
C 21.6618 25.5609 20.1606
O 23.0254 25.4846 20.5844
H 23.2267 24.5648 20.6654
C 20.4703 20.0106 18.2055
O 20.0285 19.5774 16.9163
H 19.5541 20.2769 16.4935
C 20.4132 10.2129 15.7924
O 20.7217 11.6075 15.8633
H 21.148 11.9169 15.0787
C 13.4882 4.93872 20.9869
O 13.8435 3.89166 21.8937
H 13.1212 3.55391 22.401
C 25.3711 22.3385 2.15508
O 26.7797 22.4042 2.39245
H 27.2024 23.1178 1.93952
C 29.3204 23.9721 17.9357
O 28.3752 23.8765 19.0045
H 27.6044 24.361 18.7513
C 17.3347 20.081 13.4162
O 17.2741 21.4827 13.6925
H 17.0709 21.8483 12.8451
C 15.8352 10.9377 10.5076
O 15.5433 10.5474 11.852
H 16.3963 10.7201 12.2204
C 16.4774 18.0892 9.95861
O 16.1944 18.1948 8.56089
H 16.7411 18.931 8.33245
C 9.52868 21.7125 28.7004
O 10.3807 22.8314 28.9592
H 11.119 22.8496 28.3697
C 18.7171 11.4268 24.6332
O 20.0313 10.8888 24.4649
H 20.0914 10.6687 23.5478
C 9.63948 9.10047 19.0994
O 9.88647 8.45358 20.3505
H 10.4262 9.00956 20.8914
C 19.4155 7.22624 27.9566
O 18.4281 6.30223 27.4916
H 17.6647 6.44173 28.0309
C 23.7073 27.424 8.1193
O 23.1804 28.3707 7.18601
H 23.4118 29.2539 7.42976
C 1.84144 21.5427 15.2812
O 2.23914 20.8948 14.0701
H 3.03196 20.3911 14.1738
C 1.59868 24.7298 11.8858
O 2.57469 25.6597 12.3629
H 3.2777 25.6716 11.7315
C 19.8373 2.53697 4.19245
O 21.1556 3.07381 4.32876
H 21.1324 3.78469 3.70656
C 29.3296 17.8227 26.0825
O 0.835177 16.459 25.7378
H 1.74146 16.2838 25.5353
C 6.17165 6.33853 7.94135
O 6.55595 7.07517 9.10521
H 5.75681 7.0573 9.60926
C 15.979 21.9125 10.2882
O 16.7667 22.4412 11.3582
H 16.3597 23.2789 11.5181
C 21.4251 23.198 4.55982
O 20.6151 23.7748 3.53211
H 19.892 23.1732 3.44107
C 28.3066 10.4637 11.5983
O 0.82502 9.80981 11.5532
H 0.852055 9.30802 10.7529
C 5.67813 17.8783 18.6555
O 5.10919 18.3525 19.8788
H 5.81988 18.6762 20.4109
C 25.9619 12.4798 1.69524
O 24.7261 12.6789 1.0037
H 24.9181 12.8801 28.8531
C 14.8192 7.6262 9.80187
O 14.6635 6.25729 10.1849
H 13.7844 6.11487 9.86867
C 2.50493 22.8011 28.2604
O 1.76212 21.9626 29.1493
H 0.967059 21.6449 28.7494
C 9.00367 23.4574 7.8788
O 8.52371 22.8204 6.69192
H 7.68609 23.1411 6.39431
C 25.1486 25.3908 3.82737
O 26.4984 24.9548 4.0086
H 26.5925 24.2448 4.62508
C 3.51473 16.9256 11.2797
O 3.00236 16.213 10.1507
H 3.76316 15.84 9.73235
C 7.88538 10.5901 8.14525
O 7.63607 11.9971 8.0887
H 7.64907 12.1763 7.16094
C 19.6931 15.7149 7.13772
O 20.7439 14.9671 7.7554
H 21.4929 15.5341 7.65276
C 16.7931 5.57204 24.2914
O 17.548 6.78119 24.4049
H 17.8024 6.87869 25.3098
C 1.60677 12.98 3.20186
O 28.9878 13.3079 2.96442
H 28.7324 13.9165 3.6407
C 15.7636 17.4886 25.3934
O 15.4661 18.8003 25.8792
H 14.7596 19.0505 25.3037
C 16.4175 17.418 16.0856
O 17.3623 18.4796 16.2444
H 18.1319 18.2141 15.7646
C 14.4186 19.4759 5.98482
O 14.1523 19.5909 7.38509
H 14.746 19.0752 7.9091
C 15.306 15.6456 5.86842
O 16.5003 16.4279 5.94867
H 16.4245 17.1426 6.56225
C 23.1467 10.363 5.91124
O 23.2728 10.9362 7.21526
H 23.2638 10.2702 7.88561
C 17.6491 28.5417 5.32276
O 16.4736 27.7291 5.3758
H 16.4336 27.294 6.21372
C 24.8959 3.39103 4.20788
O 25.3837 2.56794 5.27065
H 26.3047 2.77928 5.26716
C 14.5327 0.960796 8.99365
O 14.379 1.18742 10.3972
H 15.176 1.6002 10.693
C 21.7071 5.22324 23.3389
O 22.2774 5.94256 22.2424
H 21.6103 5.91887 21.5734
C 19.0859 12.9887 28.6655
O 18.5463 11.867 29.3696
H 19.2059 11.4699 1.16504
C 13.7235 15.1834 17.5345
O 12.9093 14.2469 16.8239
H 12.4519 14.6383 16.0954
C 18.6397 13.0588 9.5306
O 19.7514 12.427 10.1708
H 20.5584 12.6216 9.71924
C 22.7838 8.46589 24.7829
O 21.6642 8.32775 25.6617
H 20.8761 8.67238 25.2704
C 11.1757 16.9856 5.08391
O 11.6264 15.9075 4.25966
H 11.8693 16.2451 3.41112
C 6.48401 22.1552 1.67484
O 5.76316 21.0406 2.20679
H 4.82854 21.1621 2.2756
C 28.5425 9.23715 1.88172
O 0.715172 8.15692 1.73327
H 1.60308 8.37945 1.96804
C 11.6731 3.43113 17.2546
O 11.6139 2.10479 16.7233
H 11.1816 2.17748 15.8862
C 10.0041 9.64012 2.34546
O 10.615 8.75912 3.29177
H 10.3583 7.87271 3.08835
C 2.9474 14.56 24.1638
O 2.9807 14.8406 25.5656
H 2.83718 14.0502 26.0633
C 20.2251 2.93996 20.1448
O 21.3477 2.63682 19.3125
H 21.9099 2.04785 19.7921
C 27.2668 26.6743 12.3769
O 26.6359 25.4173 12.6352
H 26.9047 24.7569 12.015
C 16.2421 3.10421 6.17012
O 14.8827 3.44003 6.46028
H 14.6525 4.22617 5.98913
C 5.23721 1.4125 7.7833
O 5.47623 2.69292 8.37348
H 6.35181 2.6365 8.72448
C 10.1197 22.3293 3.7841
O 11.1006 22.9218 2.92878
H 10.8098 22.9012 2.02987
C 9.39205 2.95495 20.1246
O 9.98039 3.88599 21.0367
H 9.59131 4.7308 20.8695
C 1.71472 28.1417 8.5999
O 1.83001 26.7165 8.62397
H 2.22952 26.4817 9.44754
C 25.2181 2.55118 13.3475
O 25.5525 1.16104 13.3229
H 25.6736 0.86244 12.4345
C 5.15072 22.9868 5.03988
O 6.39404 23.4635 5.5612
H 6.21864 24.2832 5.99749
C 19.4271 11.8702 5.79111
O 19.6499 10.5317 5.33976
H 18.8604 10.0517 5.53769
C 8.64649 16.6147 11.4526
O 9.35075 16.2974 10.2492
H 9.79645 17.0632 9.92067
C 19.177 20.6702 7.59976
O 17.8024 20.3221 7.78467
H 17.2268 21.0659 7.69337
C 15.8839 15.5799 12.282
O 14.568 15.2004 11.8705
H 14.4037 14.2757 11.975
C 15.3944 23.9006 15.4008
O 14.1178 23.2611 15.4797
H 13.8826 23.2424 16.3948
C 22 19.9242 2.68165
O 21.786 18.7659 3.49261
H 20.8692 18.5371 3.50767
C 11.6196 10.505 9.97529
O 11.5476 11.7504 10.6744
H 10.683 11.984 10.9758
C 4.01612 1.69093 20.4665
O 4.22802 29.0744 20.1118
H 3.67297 28.9851 19.3522
C 11.6183 19.5471 1.14433
O 10.8366 18.5128 1.74773
H 9.97058 18.8769 1.6458
C 15.8488 17.546 2.33766
O 16.5297 17.607 1.08168
H 17.4114 17.2749 1.15541
C 14.9698 10.8391 15.4376
O 15.7643 10.0794 14.523
H 15.3781 10.2779 13.6837
C 21.8015 7.65418 3.80967
O 22.5704 6.45451 3.68965
H 22.072 5.8121 3.20814
C 22.9146 22.5838 17.8591
O 23.8372 21.7142 18.5206
H 24.6458 21.6087 18.0432
C 6.51661 9.74802 3.15856
O 6.27134 8.41534 2.70172
H 6.42508 8.43091 1.76944
C 22.9459 14.209 5.69074
O 24.1021 15.0487 5.7444
H 24.067 15.8113 5.18742
C 22.1009 28.3029 12.7738
O 21.2347 29.3942 12.4516
H 20.5951 28.9732 11.8979
C 16.4099 12.0943 18.718
O 17.5801 12.3932 19.4837
H 18.2575 12.5687 18.8486
C 21.3857 22.5283 22.8488
O 21.3699 22.5905 21.4203
H 22.2892 22.4691 21.2382
C 25.3906 5.45999 24.6322
O 25.3127 4.06345 24.9297
H 25.3429 3.94177 25.8663
C 27.5313 6.67283 4.79219
O 26.6766 5.74722 5.46869
H 26.9981 4.875 5.2987
C 22.9124 26.0607 16.1913
O 23.927 25.3042 15.5256
H 24.7616 25.6933 15.7378
C 3.90874 17.449 7.11258
O 2.57575 17.2191 6.64869
H 1.98358 17.2614 7.38392
C 18.4125 2.54216 23.5492
O 18.6394 2.34204 24.9469
H 17.8258 1.99021 25.2746
C 18.4501 28.2667 20.6963
O 17.7991 27.6914 21.8321
H 18.3546 26.9527 22.0293
C 3.17793 11.9796 11.8465
O 2.68087 11.1485 12.8986
H 1.97516 10.6438 12.5241
C 26.5598 5.18081 8.78995
O 27.709 5.8111 8.21817
H 27.4272 5.92834 7.32381
C 23.1971 19.3368 15.6763
O 23.8019 18.6024 14.6087
H 24.6792 18.4211 14.9096
C 3.4286 26.8501 26.4236
O 2.05183 26.6284 26.107
H 1.99324 26.5405 25.168
C 13.27 8.13432 18.5991
O 14.5236 7.49634 18.8568
H 14.9556 7.91817 19.5837
C 11.9513 11.3432 28.4005
O 11.4409 12.1691 27.3506
H 12.2707 12.3983 26.9607
C 11.1578 14.5319 13.3501
O 11.8705 14.9579 14.5144
H 12.3531 15.6801 14.1423
C 17.929 25.9198 2.35475
O 17.8386 24.5982 1.81618
H 17.1753 24.1374 2.30688
C 17.5515 21.0882 2.03881
O 18.717 21.8896 2.24948
H 18.6724 22.4468 1.48752
C 3.67088 2.59041 27.3624
O 3.35315 1.44613 26.5658
H 4.14014 1.09724 26.176
C 9.40911 7.67697 10.666
O 9.36013 7.1403 9.34138
H 8.4485 6.9897 9.14318
1500
 Atoms. Timestep: 80000
O 6.94569 18.759 21.5329
H 7.38374 19.2496 20.7796
H 5.99435 18.5634 21.2948
O 12.7693 9.52525 22.5808
H 13.3437 10.1757 23.0778
H 12.008 10.0122 22.1527
O 13.7165 19.4871 26.6222
H 14.5631 18.9735 26.7618
H 13.2169 19.1018 25.8464
O 12.5301 8.60011 8.54245
H 12.041 7.72793 8.54961
H 11.9372 9.31779 8.90766
O 18.845 27.0465 24.876
H 18.8361 26.6948 23.94
H 19.6576 26.7089 25.3511
O 17.1539 24.838 17.2144
H 16.1917 25.0737 17.0782
H 17.2424 24.2494 18.0179
O 3.07284 10.7197 17.2671
H 2.62624 10.4786 16.4055
H 4.04585 10.4955 17.2123
O 25.6818 7.43093 25.013
H 25.4268 6.80786 24.2736
H 25.9233 8.32229 24.6294
O 28.0006 21.9707 14.7177
H 28.3983 22.8753 14.5642
H 28.7291 21.3163 14.9202
O 14.9495 3.532 24.2074
H 14.266 3.01701 23.6902
H 14.4955 4.24408 24.7429
O 4.21343 20.6623 14.6795
H 4.67773 19.9978 15.265
H 4.8676 21.3566 14.3795
O 27.2195 23.7238 4.89207
H 26.6067 23.6257 5.67619
H 28.1452 23.4534 5.1566
O 17.6087 25.1921 12.7579
H 16.8497 25.8432 12.7598
H 18.23 25.4065 12.0042
O 13.5173 5.43807 25.3649
H 13.5317 6.30556 25.8621
H 12.7239 5.41581 24.7565
O 9.02904 11.6588 23.2217
H 9.71817 11.8102 23.9303
H 8.49886 12.4961 23.088
O 9.805 22.4272 11.1297
H 10.2254 23.0482 11.7912
H 8.81616 22.5755 11.1151
O 11.0056 10.7172 21.1685
H 10.358 10.9135 21.9048
H 11.077 11.5127 20.5666
O 12.3468 21.2454 18.6353
H 13.0176 21.0094 17.9322
H 12.6406 22.0741 19.1115
O 22.5225 1.71957 8.65914
H 23.416 2.16776 8.68928
H 21.8016 2.40756 8.7419
O 20.946 16.157 7.83846
H 21.7387 15.9333 7.27133
H 20.6326 17.082 7.62328
O 9.86275 9.71224 16.6124
H 9.98116 8.71927 16.6137
H 9.89491 10.0505 15.6719
O 25.4855 21.3823 14.1674
H 26.3607 21.7853 14.4348
H 24.919 21.2463 14.9802
O 12.2024 14.8036 19.2585
H 12.0245 14.4119 18.3557
H 11.3533 15.1753 19.6338
O 23.0876 9.35581 9.21396
H 23.6862 8.61082 9.50838
H 22.6211 9.7427 10.0094
O 25.4701 1.30177 23.6277
H 24.4953 1.51018 23.7079
H 25.8582 1.16678 24.5393
O 23.0917 18.9223 4.24569
H 23.5441 19.7872 4.46293
H 23.7609 18.2814 3.86949
O 3.76644 5.18231 7.32299
H 4.04378 5.03347 8.27216
H 2.78842 4.99644 7.22845
O 6.57745 4.61284 16.7984
H 5.77472 5.10854 17.1299
H 6.28581 3.87659 16.1877
O 4.80544 25.4716 8.87723
H 5.17023 24.8831 8.15578
H 4.62894 26.3833 8.50619
O 9.29605 15.2046 20.2066
H 8.99853 15.2214 21.1611
H 8.99458 14.3526 19.7784
O 27.0829 7.74258 21.9493
H 26.8178 6.77932 21.9063
H 28.0533 7.81117 22.1806
O 27.9761 26.6565 22.7578
H 28.4948 26.0631 22.1423
H 27.9589 27.5858 22.3889
O 20.9586 13.316 17.4607
H 20.2651 13.8317 17.9639
H 21.2282 12.5133 17.9926
O 7.50062 7.34109 25.5403
H 7.72131 8.05284 24.8734
H 6.59591 6.9653 25.3396
O 25.9503 14.8004 25.8785
H 25.8066 13.9646 25.3487
H 26.5875 15.3981 25.392
O 16.4773 10.3696 22.6209
H 15.4785 10.3454 22.6636
H 16.7642 10.9404 21.8515
O 20.8209 28.1717 0.716785
H 20.5135 27.6061 28.704
H 21.7682 27.9429 0.940989
O 21.4263 27.8554 8.71447
H 21.8695 28.7462 8.8141
H 21.8286 27.2086 9.36239
O 20.3135 26.92 27.1717
H 20.4465 26.0179 26.7611
H 21.1475 27.4613 27.0643
O 7.98794 10.3895 7.60961
H 8.26262 10.0828 6.69831
H 7.01064 10.2207 7.73762
O 1.58952 9.38758 18.9717
H 1.04593 10.1051 19.4073
H 2.07522 9.76862 18.185
O 12.0877 4.83021 28.1187
H 11.2822 4.47788 27.6423
H 12.3426 5.71646 27.732
O 17.0625 4.47692 19.015
H 17.696 5.17216 19.3546
H 16.8578 4.65414 18.0524
O 20.7453 4.06379 5.37237
H 19.9171 4.62349 5.40149
H 20.8902 3.73123 4.44049
O 0.888287 24.9705 1.57511
H 28.7225 25.254 1.8513
H 0.966803 25.0192 29.3319
O 28.0009 28.3657 2.47998
H 28.0359 29.224 1.96808
H 27.8144 28.5594 3.44316
O 10.0198 19.7227 10.7397
H 10.0441 20.691 10.9883
H 10.2819 19.6182 9.78031
O 0.988845 5.17097 17.5337
H 29.1927 6.00679 17.5544
H 0.910118 4.74286 16.6334
O 1.23508 18.5752 12.5014
H 0.820148 19.4844 12.4667
H 0.9033 18.0278 11.733
O 26.2249 1.35452 0.989218
H 25.8706 0.68485 29.089
H 25.4765 1.93426 1.31136
O 20.9612 26.2318 12.6331
H 20.6188 26.7161 13.4382
H 20.248 26.2034 11.9327
O 5.65987 8.14541 4.54173
H 5.98429 8.26702 5.47979
H 4.68168 8.34855 4.49838
O 22.2559 16.5895 19.7584
H 21.7227 17.0242 19.0325
H 23.228 16.7748 19.6145
O 21.7255 11.535 19.4486
H 21.8498 10.5697 19.2187
H 20.7652 11.7038 19.6704
O 15.8607 20.4685 19.5473
H 15.7152 19.7652 20.2431
H 15.2203 20.328 18.7922
O 25.4131 25.4842 12.0561
H 26.3115 25.3526 11.637
H 25.5015 26.0811 12.8535
O 17.4171 18.2283 21.4092
H 16.4969 18.5079 21.6831
H 17.3783 17.786 20.5132
O 27.5544 3.39448 23.4638
H 28.3674 3.01693 23.0206
H 26.9568 2.64772 23.7559
O 15.1187 8.70958 26.0678
H 15.2187 9.50339 26.6677
H 16.0115 8.28007 25.9317
O 13.7924 10.8962 6.78574
H 13.2501 11.6518 6.41827
H 13.218 10.3307 7.37755
O 10.3859 18.1359 20.6588
H 10.1805 17.1624 20.5577
H 10.113 18.622 19.8286
O 6.01125 6.7658 19.4598
H 5.26323 6.69232 18.8002
H 6.43763 7.66692 19.3812
O 17.2446 2.3625 24.1803
H 16.3662 2.8122 24.3417
H 17.6047 2.64396 23.2908
O 4.08204 27.5031 7.04596
H 4.7227 27.3722 6.28938
H 3.41518 28.2066 6.8001
O 18.0062 1.33447 3.44518
H 18.5627 2.16451 3.48257
H 17.2722 1.39452 4.12164
O 11.7879 1.50902 12.6869
H 12.4286 0.950184 12.1605
H 12.2529 1.88256 13.4895
O 2.9184 22.7814 21.5588
H 3.67844 23.4137 21.4083
H 3.18855 22.0886 22.2274
O 4.64118 14.9117 16.9511
H 4.16943 15.7841 16.8232
H 4.03298 14.269 17.417
O 24.3248 21.1916 4.45377
H 24.1273 21.9894 5.02344
H 25.056 21.415 3.80926
O 25.1063 28.4989 27.7653
H 24.1763 28.3231 27.4425
H 25.5336 27.6365 28.0366
O 28.8319 17.0327 10.24
H 0.712174 16.2586 10.2214
H 28.0716 16.827 10.8562
O 6.83986 15.5057 4.65989
H 7.47678 15.9152 4.00671
H 5.97446 15.3052 4.20066
O 27.9572 24.7979 11.1946
H 28.4359 25.3928 10.5489
H 27.9363 23.8648 10.8356
O 3.35963 13.1581 27.4504
H 2.67517 13.869 27.2888
H 3.05928 12.3037 27.0264
O 27.3248 10.0293 28.285
H 27.9199 10.3452 27.5461
H 27.1029 9.06437 28.1449
O 13.5634 21.1887 10.3746
H 12.7487 21.6596 10.0365
H 13.793 20.4355 9.75818
O 19.4706 5.73064 1.6353
H 19.8193 6.65744 1.7747
H 18.7161 5.75355 0.979374
O 13.7877 23.8322 11.6775
H 12.8991 23.7853 12.1337
H 13.9984 22.9455 11.2661
O 13.58 5.43587 3.71026
H 13.8546 6.27799 3.24612
H 13.3782 4.73106 3.03018
O 21.2185 9.67024 11.371
H 21.1142 10.6398 11.1497
H 21.2393 9.55546 12.3642
O 15.4445 12.9537 6.02241
H 14.9041 12.2038 6.40402
H 16.0284 13.3407 6.73612
O 1.88184 11.1816 5.24158
H 2.57542 11.6691 5.77196
H 1.13902 11.809 5.00789
O 18.1008 2.07138 28.7562
H 18.0594 1.35188 28.0629
H 18.4598 1.69225 0.856535
O 6.85878 1.90314 18.0457
H 6.6202 2.09328 17.0933
H 6.95812 2.76506 18.5429
O 14.4265 16.7057 19.4526
H 15.2914 16.3656 19.0834
H 13.6846 16.0916 19.1832
O 25.3389 19.4765 12.1874
H 24.7983 19.988 11.5194
H 25.3706 19.9834 13.0489
O 8.52668 9.1023 23.5225
H 8.2027 8.66437 22.6839
H 8.58488 10.0906 23.3814
O 5.04913 5.44953 9.75265
H 5.89096 5.48102 9.21383
H 5.18528 4.86096 10.5496
O 17.0937 10.0021 18.2955
H 16.3057 9.51968 18.6782
H 16.914 10.227 17.3379
O 10.7391 19.4167 8.0824
H 11.2931 20.249 8.10379
H 10.8323 18.9771 7.18904
O 25.4788 5.54793 5.30527
H 24.7948 6.04861 4.77466
H 25.6355 4.65318 4.88713
O 26.9422 15.4092 8.21024
H 26.4288 14.616 8.53774
H 26.8131 16.1737 8.84178
O 20.3865 18.2087 24.3863
H 20.4187 18.982 23.7531
H 20.9545 17.4651 24.0335
O 2.793 18.8838 21.9586
H 3.09789 19.6463 22.5293
H 3.42396 18.7685 21.1914
O 8.91885 12.6744 26.8448
H 9.67674 12.1911 26.4066
H 8.5258 12.098 27.5613
O 26.1321 5.46057 22.648
H 26.6549 4.72023 23.0706
H 25.1566 5.24418 22.687
O 24.7402 20.8052 16.8523
H 25.2207 21.0324 17.6993
H 24.8948 19.8427 16.6292
O 1.22625 25.0095 27.4047
H 1.43037 24.1552 26.9267
H 0.970862 25.711 26.7394
O 13.4856 12.8647 20.6784
H 13.119 12.8873 21.6085
H 12.9473 13.4709 20.093
O 29.407 23.4352 24.0567
H 28.5701 23.0831 24.4757
H 29.2699 23.5352 23.0712
O 18.9279 27.6496 2.79795
H 19.6573 27.7949 2.12946
H 18.4309 28.5056 2.94041
O 14.7445 18.703 21.1455
H 14.5599 17.8335 20.6872
H 13.8826 19.1828 21.3098
O 10.6485 26.7404 10.8743
H 10.0665 27.5463 10.9832
H 10.3118 26.1866 10.1128
O 2.31864 16.1994 27.834
H 1.87263 15.4359 28.3009
H 2.30944 17.0042 28.4274
O 1.49008 12.8258 8.73595
H 0.999586 13.4109 8.09011
H 1.54895 11.8982 8.367
O 20.7414 12.2529 9.97061
H 21.0883 13.1655 10.187
H 20.8036 12.0978 8.98468
O 19.7938 22.2608 27.1673
H 19.1346 22.6963 26.5543
H 19.3648 22.0964 28.0556
O 26.8318 24.537 26.5729
H 27.0925 23.5891 26.3897
H 27.4983 25.1531 26.1533
O 1.81276 4.25295 19.793
H 1.0655 3.61433 19.6093
H 1.83929 4.95 19.0765
O 6.89846 6.30507 2.50056
H 7.69688 6.71357 2.05825
H 6.68906 6.80703 3.33972
O 3.68049 9.10195 12.3869
H 3.44016 9.81951 13.0406
H 3.07352 9.15646 11.594
O 11.4175 6.02616 5.74921
H 10.9501 5.22822 5.36871
H 12.3566 6.05705 5.40682
O 15.5949 11.2307 27.1696
H 15.6123 11.9764 27.8357
H 16.2989 11.3864 26.4766
O 18.2375 0.795777 26.192
H 18.2835 28.5936 25.8981
H 17.8103 1.34535 25.474
O 23.9901 13.3825 23.3992
H 23.89 13.7505 22.4748
H 23.1834 13.6183 23.941
O 15.2421 26.4651 15.0826
H 15.6377 27.3723 15.2258
H 14.4634 26.3403 15.6975
O 23.6585 15.6526 7.05838
H 23.7246 14.9689 6.33159
H 24.5773 15.9257 7.3436
O 20.5887 3.43449 2.78053
H 20.0801 4.26746 2.56263
H 20.9981 3.06599 1.9459
O 17.4796 23.329 26.0673
H 16.6627 22.7555 26.1301
H 17.2679 24.2481 26.3996
O 6.90723 2.47922 8.31169
H 6.53039 3.23861 7.78128
H 7.82807 2.26822 7.98377
O 5.94104 2.3596 15.22
H 5.54176 2.92171 14.4957
H 5.29283 1.64495 15.4828
O 7.87227 17.4658 18.7251
H 8.22792 16.8947 19.4649
H 7.84821 16.9361 17.8772
O 8.29857 16.2427 2.48277
H 8.22459 17.1917 2.17622
H 8.85143 15.7239 1.83069
O 15.5211 13.7103 24.9165
H 15.6234 14.5976 25.3663
H 16.3359 13.1555 25.0845
O 28.961 8.02137 13.4093
H 29.2794 8.46418 12.5711
H 0.680864 7.14759 13.5248
O 17.3083 11.3745 25.1453
H 17.1892 10.9503 24.2476
H 18.2841 11.4678 25.3431
O 14.3703 11.3402 24.0867
H 14.3917 10.8652 24.9665
H 14.9367 12.1627 24.1382
O 18.2628 6.42806 10.7958
H 19.1669 6.81751 10.6201
H 17.562 7.01884 10.396
O 3.60503 7.97755 7.25051
H 3.62107 7.01554 7.52306
H 3.33855 8.04722 6.28919
O 18.8775 21.8546 13.3638
H 19.8159 22.132 13.1576
H 18.2747 22.6505 13.3078
O 25.4373 27.9004 19.4856
H 25.6814 28.6011 20.156
H 24.612 27.4232 19.7876
O 5.47637 18.79 16.7869
H 6.25933 18.1924 16.6142
H 5.77892 19.598 17.2925
O 22.8351 28.1927 26.2231
H 22.9413 28.7924 25.43
H 23.1765 27.28 25.999
O 5.83669 24.052 6.61465
H 5.34235 23.3836 6.05891
H 6.03634 24.8618 6.06289
O 7.39877 17.804 27.7434
H 7.61708 16.9558 27.261
H 6.4277 17.8113 27.9821
O 11.0017 8.77463 5.71491
H 10.853 7.79361 5.5905
H 11.3159 8.94842 6.64822
O 27.9825 20.5198 12.4801
H 27.7351 21.1575 13.2095
H 27.1558 20.0849 12.123
O 17.5259 25.9924 6.48706
H 18.4376 25.6468 6.26473
H 17.6086 26.865 6.96845
O 22.5341 1.78545 24.0605
H 21.7807 1.80377 23.4032
H 22.1664 1.81717 24.9899
O 28.9072 12.389 1.81184
H 28.6818 11.5376 1.33826
H 28.7909 12.2633 2.79706
O 18.662 2.68356 20.5336
H 17.8256 2.43333 20.046
H 18.6201 3.64815 20.794
O 9.3147 2.23122 6.86246
H 9.96853 1.54245 7.17567
H 9.71173 2.74672 6.1031
O 2.78921 19.1539 28.7276
H 2.60196 19.8984 29.3684
H 2.29023 19.3138 27.8759
O 28.3997 2.49804 19.3454
H 27.4384 2.7735 19.3369
H 28.4906 1.59235 18.9313
O 28.9096 26.2856 9.04533
H 29.2105 27.1221 8.58731
H 29.4095 25.5035 8.67328
O 17.8746 4.15879 12.4578
H 17.9502 4.9729 11.8821
H 18.4255 3.42159 12.0667
O 27.0223 25.9446 2.42956
H 27.3828 26.8735 2.34441
H 26.3351 25.9191 3.15557
O 8.09423 16.4949 22.4031
H 8.91934 16.6991 22.9299
H 7.63252 17.3487 22.1626
O 6.77269 20.9852 23.4894
H 7.06865 20.6972 24.4001
H 7.04473 20.2965 22.8172
O 18.7004 5.38495 21.2295
H 19.2126 6.24068 21.3034
H 17.7414 5.54944 21.4603
O 9.86848 15.3159 29.21
H 9.58561 15.1341 28.2683
H 10.8557 15.4727 29.2372
O 10.6638 11.6878 18.2899
H 11.2215 12.3775 17.828
H 10.2258 11.1021 17.608
O 1.12233 8.98606 10.675
H 1.08793 9.98237 10.5964
H 1.22033 8.58312 9.76501
O 11.914 24.3858 7.18742
H 11.2073 23.7692 6.84061
H 12.483 24.7013 6.42803
O 14.861 26.2691 12.4855
H 14.6661 25.3061 12.299
H 14.9623 26.4039 13.4712
O 16.067 2.19289 13.1609
H 15.1366 2.34101 12.8257
H 16.6249 2.99886 12.963
O 25.6061 14.4633 20.4098
H 25.9829 14.0818 19.5657
H 24.7315 14.0232 20.6132
O 0.823446 11.2215 26.9947
H 0.559218 11.5022 26.072
H 1.70759 10.7555 26.961
O 13.0104 27.9378 11.5035
H 13.7339 27.315 11.8014
H 12.2238 27.4078 11.1869
O 23.1824 4.33357 16.3894
H 22.6097 3.81718 15.7527
H 23.1203 3.92513 17.3
O 8.84503 12.3386 9.49848
H 8.07608 12.5052 10.1157
H 8.54698 11.7519 8.74552
O 18.4023 9.27767 4.43993
H 17.4914 9.26897 4.85246
H 19.0182 9.82826 5.00344
O 23.0289 13.7589 20.6816
H 22.65 13.04 20.0989
H 22.6794 14.6475 20.3845
O 10.1206 17.7538 23.4577
H 10.3111 17.9891 22.5046
H 10.9648 17.812 23.9906
O 12.8368 7.65883 26.9591
H 12.0587 8.04356 26.4625
H 13.6441 8.22911 26.8072
O 13.5062 28.6424 8.97477
H 14.0363 27.8646 8.6371
H 13.3471 28.5364 9.95631
O 16.8372 16.0851 25.6064
H 17.5769 16.1004 26.2791
H 17.2227 16.1446 24.6856
O 27.2933 6.71006 15.4922
H 27.8543 7.21305 14.8347
H 27.4666 7.05827 16.4135
O 12.3256 19.9241 21.2954
H 12.4168 20.5272 20.503
H 11.5043 19.3626 21.1942
O 14.1991 10.1679 20.0021
H 13.8792 11.1153 19.9934
H 13.5688 9.60811 20.54
O 3.48587 17.1616 15.8352
H 3.4197 17.1675 14.8374
H 4.10955 17.8847 16.1321
O 16.7193 10.9036 15.5986
H 16.1979 10.9437 14.7463
H 16.7202 11.8051 16.0316
O 23.9532 6.79294 15.0623
H 24.9051 7.09765 15.0941
H 23.8174 6.05432 15.7226
O 1.45044 2.72404 22.2205
H 2.18432 2.67896 22.8982
H 1.70512 3.36402 21.4955
O 2.59955 13.5603 17.8474
H 1.78862 13.8612 17.3455
H 2.61861 12.5611 17.8816
O 18.4535 23.152 21.7199
H 18.5668 22.5187 22.4854
H 19.0989 22.9156 20.9935
O 16.7553 23.1544 19.3532
H 17.1739 23.3629 20.2371
H 16.5106 22.1853 19.3205
O 1.49727 10.1676 8.06201
H 0.738523 9.58888 7.76312
H 2.34738 9.84333 7.64711
O 4.87719 17.4498 28.4026
H 4.21091 18.1655 28.6122
H 4.45414 16.5528 28.5304
O 14.458 20.4528 16.8131
H 14.1548 20.2698 15.8779
H 14.8405 21.3753 16.8651
O 4.03014 20.8185 23.3865
H 5.0071 20.9441 23.2139
H 3.71881 21.4988 24.0501
O 14.6183 23.3238 1.06079
H 14.4653 24.1046 1.66644
H 13.7484 22.863 0.884766
O 6.81755 7.07053 22.1793
H 6.62259 6.99547 21.2014
H 5.98305 7.32741 22.6668
O 7.33503 23.4794 22.4434
H 6.93196 22.6149 22.7436
H 7.80646 23.912 23.2119
O 5.22614 29.1803 22.5234
H 5.12073 29.4229 21.559
H 4.7945 28.2944 22.6934
O 25.9054 25.9986 28.6292
H 26.3865 25.8887 0.746414
H 26.4196 25.5412 27.9037
O 20.5868 7.47171 10.1078
H 20.3686 7.78442 9.18336
H 20.7743 8.26184 10.6914
O 21.4049 17.7336 15.7382
H 21.4846 16.7445 15.8621
H 21.059 17.9278 14.8202
O 21.5498 1.97649 29.2596
H 21.7342 1.99945 28.277
H 21.3473 1.03789 0.786374
O 25.2459 11.2063 29.4342
H 26.1017 10.8389 29.0701
H 25.3774 12.1632 0.940681
O 8.15793 20.4402 19.8743
H 8.22521 21.4379 19.882
H 8.95781 20.0557 19.4134
O 27.459 22.2594 25.3246
H 26.8865 21.6575 24.7679
H 27.7831 21.7611 26.1287
O 26.0937 12.241 24.5166
H 25.3549 12.7102 24.0329
H 26.101 11.2751 24.2576
O 20.4463 17.8143 18.2683
H 20.7339 17.9917 17.3272
H 20.0334 18.6404 18.6519
O 4.9691 24.5814 21.3106
H 5.12137 25.0476 20.4391
H 5.84871 24.3118 21.7026
O 10.2419 18.3886 13.1147
H 10.1022 18.9446 12.2954
H 10.4447 17.4465 12.8476
O 5.42967 4.18264 13.3139
H 5.7847 3.73065 12.4956
H 5.21816 5.13686 13.1024
O 24.9659 17.1652 19.9903
H 25.1555 16.3686 20.5643
H 25.5446 17.9284 20.2778
O 23.2041 26.2135 10.5091
H 22.8309 26.3762 11.4224
H 24.1616 25.9349 10.5851
O 29.0533 24.0613 21.4765
H 1.26168 23.7843 21.4827
H 28.8868 24.6699 20.7007
O 10.3657 19.5141 18.3758
H 10.104 19.268 17.4426
H 11.1319 20.1562 18.3487
O 9.10706 6.55226 27.5256
H 8.45807 6.92058 26.8599
H 9.3953 5.63839 27.2397
O 8.09439 18.824 1.4967
H 7.20453 19.2114 1.73767
H 8.04504 18.4178 29.3367
O 11.5099 22.3962 9.16764
H 10.7531 22.5004 9.81285
H 11.7991 23.2974 8.84482
O 22.9621 5.11043 7.64192
H 23.9468 5.27519 7.69841
H 22.73 4.78892 6.72387
O 10.44 8.83779 25.5874
H 9.91226 8.30718 26.2508
H 9.93134 8.8981 24.7286
O 8.78442 24.927 24.5922
H 9.77006 24.762 24.556
H 8.59883 25.8858 24.3773
O 24.0376 23.292 11.7939
H 23.3427 23.3003 12.5129
H 24.6811 24.0427 11.9436
O 21.5796 16.6621 22.5436
H 21.72 16.6047 21.5551
H 21.5581 15.7406 22.9313
O 17.0685 17.1643 18.894
H 17.8327 16.5606 18.6667
H 16.6989 17.5644 18.0554
O 15.3404 23.6125 7.07038
H 15.9828 24.2882 7.43203
H 14.6708 23.3785 7.77525
O 27.5832 18.398 28.378
H 26.829 17.8949 27.9559
H 28.3055 18.5447 27.7021
O 26.6657 4.41438 14.4563
H 25.6706 4.31728 14.4426
H 26.9077 5.31604 14.8147
O 23.9123 20.9679 10.3624
H 22.9661 20.7978 10.0872
H 23.9963 21.903 10.7068
O 28.0797 28.5245 18.5309
H 28.1966 28.3353 17.556
H 27.1141 28.4338 18.7746
O 15.3261 21.6235 26.6453
H 14.7307 20.8346 26.4932
H 15.2954 21.8831 27.6105
O 11.0693 6.41394 8.49641
H 11.2926 5.97325 7.62699
H 10.1529 6.81064 8.44325
O 29.4121 13.9323 28.5254
H 28.9347 13.517 27.7511
H 29.1872 13.4331 29.3622
O 22.2274 23.0341 21.1389
H 22.6515 22.1366 21.2602
H 21.4186 22.9448 20.5577
O 18.7624 11.7933 19.7808
H 18.3995 11.2037 19.0592
H 18.0094 12.2805 20.2232
O 25.9755 1.35132 20.7967
H 25.7999 2.23397 20.3607
H 25.8691 1.44165 21.7869
O 18.5152 13.9554 11.2928
H 18.4038 14.4669 10.4408
H 19.2962 13.3364 11.2102
O 14.03 23.709 19.0931
H 13.5593 24.1272 19.87
H 15.0002 23.6012 19.3099
O 24.2803 25.9096 25.676
H 24.4955 25.9502 24.7003
H 24.8265 25.192 26.1082
O 13.7244 25.0911 5.25929
H 14.3959 24.5477 5.76309
H 13.9318 25.0544 4.28171
O 19.9649 19.0016 21.6295
H 20.4486 18.1448 21.8083
H 19.0622 18.8015 21.2488
O 1.69805 19.942 5.80102
H 1.2721 19.8894 6.70424
H 1.09767 19.5162 5.12407
O 24.1225 13.5313 5.64044
H 24.05 12.5429 5.77372
H 23.6645 13.7874 4.78919
O 18.3094 16.6751 23.5817
H 19.0124 17.1995 24.0621
H 18.0011 17.1871 22.78
O 28.0076 28.1805 15.7489
H 28.2133 29.0658 15.332
H 27.1654 27.8136 15.3536
O 4.39017 6.47204 12.1842
H 4.28973 7.46046 12.2979
H 4.67244 6.2714 11.2461
O 27.2844 12.898 17.2433
H 26.3668 12.698 16.8997
H 27.5774 12.1651 17.8574
O 26.9439 19.5253 2.14844
H 27.2494 19.4356 1.2005
H 26.8121 20.4924 2.36602
O 28.4828 29.0632 21.6008
H 29.0387 1.12879 21.7482
H 27.658 29.308 21.0911
O 3.8733 17.7076 13.2109
H 4.40104 18.5568 13.1915
H 2.92375 17.8996 12.9628
O 1.96164 5.96014 13.5463
H 2.81982 5.91287 13.0351
H 1.86202 5.13822 14.1071
O 28.282 22.1588 10.2639
H 27.5664 21.8293 9.64797
H 28.3841 21.5211 11.0275
O 20.0135 21.453 19.9157
H 19.4962 21.0965 19.1377
H 19.9006 20.8419 20.6992
O 2.75738 8.659 4.70553
H 2.31597 9.55119 4.80122
H 2.80353 8.41205 3.7376
O 21.2675 23.5691 13.4287
H 21.28 24.5066 13.081
H 21.546 23.5661 14.3892
O 20.0452 8.35744 2.26686
H 19.5534 8.73312 3.05239
H 20.8512 8.91868 2.07868
O 16.7547 26.0874 3.49032
H 16.4928 25.8229 4.41846
H 17.5721 26.6624 3.52573
O 22.3196 10.0563 2.39496
H 22.9028 10.5701 1.76564
H 21.8934 10.6864 3.04401
O 18.7062 25.8965 22.4176
H 18.1075 26.3672 21.7696
H 18.5314 24.9126 22.3788
O 4.03923 25.2624 11.4605
H 4.56466 25.2693 10.6097
H 3.84985 24.3175 11.7276
O 19.0494 25.2182 15.3788
H 18.473 24.9396 16.147
H 18.5183 25.1794 14.5324
O 1.45573 20.2768 15.3845
H 1.47287 19.3066 15.1432
H 2.2063 20.7487 14.9219
O 18.8083 15.8589 27.1452
H 19.6912 15.5874 26.7621
H 18.8771 15.9041 28.1418
O 21.8157 24.2391 8.72078
H 21.6698 24.7645 7.88253
H 22.423 24.7475 9.33133
O 14.5519 25.8027 9.31354
H 13.7545 25.4092 8.85605
H 14.4373 25.7302 10.3043
C 22.6653 15.4517 11.0017
O 21.7078 14.6875 10.2642
H 21.3705 15.2708 9.60162
C 6.87223 20.5801 11.0523
O 7.29749 21.7476 10.3444
H 7.35849 21.5842 9.41561
C 18.2008 22.7597 5.41344
O 17.6255 22.0818 6.53346
H 16.799 22.507 6.70414
C 14.1218 2.75468 1.50803
O 13.1266 3.78138 1.5262
H 12.7445 3.90401 0.670665
C 10.4513 28.9212 26.7311
O 9.91025 0.75984 27.9155
H 9.9701 28.9331 28.6597
C 19.4581 0.924755 11.6441
O 19.1531 2.23312 11.1542
H 19.5626 2.20969 10.3028
C 24.9881 1.17187 17.0374
O 25.0479 28.4956 17.0317
H 25.1927 28.197 17.9165
C 18.8943 7.20731 17.763
O 19.4129 8.31837 18.4989
H 18.7502 8.95804 18.2876
C 10.6755 7.17857 1.67983
O 9.29372 7.34126 1.34957
H 9.19606 7.22393 29.1695
C 8.96798 24.646 2.0993
O 9.22413 25.4241 0.927174
H 9.05694 24.9803 28.8623
C 26.3335 16.1514 12.8536
O 26.3975 16.7137 11.5403
H 26.0869 17.6061 11.5444
C 26.9286 22.3236 19.433
O 26.1458 21.1299 19.5184
H 26.7703 20.4435 19.3401
C 24.6718 10.6855 17.5491
O 24.9233 11.7721 16.6541
H 24.4637 11.6094 15.8446
C 28.265 20.35 22.4255
O 28.9041 19.4179 21.5494
H 1.05255 19.2768 21.7973
C 24.1464 3.8593 1.78581
O 23.972 2.44106 1.8411
H 23.1614 2.30265 1.37556
C 25.8271 3.93867 9.07465
O 24.6582 3.17825 9.39157
H 24.0424 3.6237 9.9532
C 3.28653 22.8751 4.42778
O 4.49252 22.2506 4.87561
H 4.30877 21.3244 4.83804
C 21.9181 4.25548 11.2981
O 22.9639 5.01485 10.6861
H 22.5264 5.44459 9.9671
C 27.1012 27.7307 5.85777
O 26.3899 28.0033 4.64752
H 25.6724 28.5529 4.92365
C 15.7029 4.29337 15.2785
O 16.7138 4.81899 16.1427
H 16.6586 5.7384 15.9313
C 4.8998 10.5228 9.23742
O 5.2266 10.0151 7.94113
H 4.54883 9.38191 7.76024
C 24.384 12.5336 9.28636
O 25.2548 13.3763 8.52711
H 25.0216 13.3153 7.61338
C 1.50162 1.0943 7.32423
O 1.30787 28.6165 8.02695
H 1.33013 28.7673 8.95959
C 18.5105 11.2219 6.94514
O 19.7805 10.8644 6.39364
H 20.2373 10.21 6.89972
C 2.79088 1.58246 3.66932
O 3.39058 29.2209 4.33572
H 3.3053 28.4557 3.78784
C 28.0891 6.54078 27.676
O 27.1609 7.53913 27.244
H 26.7887 7.16217 26.4614
C 16.0813 7.9466 2.28387
O 14.7868 7.43439 2.6106
H 14.1893 8.10765 2.89814
C 24.1836 10.595 13.3607
O 23.5187 11.2516 14.4432
H 22.6868 10.8097 14.5191
C 11.724 13.2835 1.84206
O 12.965 13.5153 1.17043
H 12.9781 14.3011 29.3982
C 0.815896 5.60296 7.80591
O 1.0442 4.20524 7.60801
H 0.738675 3.77527 8.3921
C 5.12015 25.0945 1.45352
O 5.16922 25.7425 2.72732
H 4.32383 26.0687 2.99554
C 22.3777 14.8634 26.6755
O 21.1322 15.4123 26.237
H 21.0802 16.1889 26.773
C 17.7148 27.7937 19.6122
O 16.8288 27.04 20.4439
H 16.235 27.6704 20.8223
C 5.87484 9.98307 15.2619
O 5.81636 9.85542 16.685
H 6.62441 9.52275 17.0448
C 3.27458 14.2711 3.14151
O 4.49037 15.0239 3.13409
H 4.81594 14.985 2.24779
C 8.43594 3.69788 28.5479
O 9.50115 3.35413 27.6579
H 9.60088 2.42238 27.7801
C 2.47663 7.14546 20.9556
O 2.99955 8.47487 20.8914
H 2.60841 8.94506 20.171
C 18.2862 17.3535 9.5365
O 18.3303 16.0158 9.03302
H 19.2242 15.8071 8.80839
C 4.15297 18.0925 4.38954
O 3.98869 19.5104 4.47544
H 3.24162 19.6971 5.02321
C 25.2953 8.07999 1.26715
O 25.534 8.81185 2.47229
H 25.6849 9.70223 2.19397
C 19.7089 10.8062 14.4163
O 21.0154 10.2722 14.1866
H 20.854 9.34147 14.2121
C 6.3369 23.8258 14.6747
O 6.20126 22.5731 13.9985
H 6.00158 22.7582 13.0935
C 12.9045 13.3615 15.8057
O 11.86 13.7901 16.6834
H 11.5436 14.5907 16.2936
C 7.34493 16.6574 11.8768
O 6.76006 15.4575 12.3895
H 5.88568 15.7619 12.5789
C 27.1544 16.3421 23.1249
O 27.8644 15.8687 24.2723
H 28.7899 16.013 24.1468
C 22.0955 19.26 27.5165
O 21.4691 18.0411 27.108
H 21.0219 18.2677 26.307
C 6.5471 15.4674 8.01875
O 5.51154 15.4505 7.03273
H 5.98212 15.6466 6.23704
C 1.20439 4.37354 25.8
O 29.2259 5.147 24.8449
H 28.7064 4.49988 24.3927
C 5.72724 20.1893 26.2656
O 7.12634 20.1088 25.9811
H 7.44739 19.4039 26.5225
C 13.3956 9.85833 16.5677
O 14.502 9.54122 17.4162
H 14.284 9.93202 18.2485
C 21.1067 27.5967 16.718
O 20.4427 27.5202 15.4538
H 19.9052 26.7513 15.568
C 6.90993 27.7876 5.06632
O 6.21725 26.5563 5.28748
H 6.04574 26.2021 4.42832
C 16.5539 13.9314 21.562
O 16.3943 12.8448 20.6462
H 15.4675 12.8016 20.4668
C 16.0913 10.8257 12.2787
O 15.2852 11.2786 13.3696
H 15.2148 12.2152 13.2659
C 1.06547 8.79411 24.5788
O 1.14117 7.65738 23.7145
H 0.947824 6.85424 24.1734
C 13.5923 26.2188 1.84955
O 14.3633 25.3627 2.69667
H 15.1993 25.7405 2.92361
C 20.2091 6.91545 13.7668
O 21.4996 7.4537 13.4671
H 22.1307 7.02583 14.0253
C 19.9385 3.4253 15.5994
O 21.225 2.87989 15.2957
H 21.1026 2.21858 14.6318
C 15.1042 28.2941 23.4035
O 15.453 28.6773 22.0707
H 15.6218 0.848212 22.1796
C 3.68701 1.50185 19.5848
O 4.84848 0.766297 19.9783
H 5.52931 1.21378 19.4995
C 21.6039 19.4679 6.69193
O 20.5242 18.5827 6.3827
H 20.514 18.4858 5.44273
C 1.47803 20.1851 25.6452
O 0.93852 19.0406 26.3115
H 1.35333 18.2449 26.015
C 6.79255 26.5282 26.951
O 6.44507 27.8683 27.3094
H 6.55062 28.5003 26.6148
C 7.73656 15.4873 25.442
O 8.50315 15.5309 26.6484
H 8.71424 14.6265 26.8236
C 0.976438 15.1903 20.3266
O 1.5568 13.8835 20.3401
H 2.05358 13.7864 19.5421
C 25.7298 24.3311 22.6412
O 25.6638 25.6922 23.0746
H 26.4927 26.1129 22.9043
C 15.2529 22.6884 23.0488
O 14.3806 23.0074 24.1362
H 14.7042 22.53 24.8848
C 8.98021 20.205 15.4894
O 10.1696 19.413 15.5433
H 10.2076 19.078 14.6605
C 18.6624 20.1734 17.0256
O 18.5052 20.0437 18.441
H 17.5914 19.8967 18.6321
C 6.65274 26.748 18.9774
O 5.34677 26.7551 19.5598
H 5.05428 27.633 19.7514
C 8.26242 27.9101 22.7491
O 8.073 27.6359 24.1397
H 7.64999 28.4205 24.4535
C 23.0535 20.1256 19.8471
O 23.8797 20.8302 20.7776
H 24.6571 21.1154 20.3223
C 6.81673 2.48054 25.3044
O 6.62335 1.14404 24.834
H 6.16895 1.17269 24.0059
C 21.3068 24.0595 24.0755
O 21.6195 25.0466 25.0618
H 22.5324 25.2761 24.9778
C 19.6853 15.1373 20.2698
O 19.6633 15.3005 18.8493
H 20.0816 16.1234 18.6473
C 8.91765 27.7665 15.4316
O 8.86265 27.0797 14.1786
H 9.09666 27.5841 13.4145
C 7.28031 12.4692 18.567
O 8.40793 12.8644 19.3526
H 9.13174 12.308 19.1086
C 24.6075 10.0731 22.2799
O 25.7119 9.67698 23.0974
H 26.1748 8.97822 22.6609
C 22.8397 7.74009 18.9223
O 21.936 8.8464 18.8569
H 21.0827 8.47151 18.7009
C 25.3934 21.2515 27.685
O 26.783 20.9153 27.656
H 26.9435 20.0192 27.9094
C 23.5431 10.852 26.5978
O 23.2465 10.1123 27.7851
H 23.798 10.3873 28.5015
C 4.89284 10.1107 22.978
O 4.34857 8.81237 23.2291
H 3.78668 8.71991 22.4749
C 26.6126 19.4273 8.1651
O 26.1044 20.5578 8.87834
H 25.2099 20.3743 9.12155
C 17.8807 20.3603 24.015
O 18.3118 21.7179 23.8892
H 18.2097 22.1771 24.7088
C 6.01088 13.5625 22.5492
O 7.41578 13.7793 22.3938
H 7.48325 14.6913 22.632
C 24.8689 7.37529 11.5279
O 24.228 7.137 10.272
H 23.9495 6.24918 10.4369
C 7.77591 15.2526 16.1313
O 6.8332 16.2379 16.562
H 5.98907 15.8138 16.5866
C 29.1788 15.8734 15.9307
O 29.2954 14.5711 16.5096
H 28.544 14.1271 16.8721
C 5.65931 12.4143 5.54454
O 4.40601 12.6698 6.18394
H 4.6045 13.3856 6.76821
C 27.1185 8.38406 18.5579
O 28.1456 7.61315 17.9289
H 28.936 7.91922 18.3468
C 8.55806 9.01437 19.6144
O 7.63211 8.91301 18.5294
H 8.03114 8.39211 17.8493
C 8.22679 22.8845 27.2741
O 8.77994 24.2022 27.2234
H 8.84776 24.3314 26.2897
C 5.04335 28.1274 12.1459
O 4.54035 27.1875 13.099
H 4.31225 26.3934 12.6402
C 11.4978 14.176 23.5078
O 12.174 13.0248 22.9953
H 12.5937 12.7235 23.7865
C 8.23734 9.73868 28.6422
O 7.47384 10.939 28.4968
H 6.63649 10.7699 28.9009
C 8.6025 8.31835 10.1693
O 9.17223 8.2485 8.8596
H 8.88379 9.07446 8.50236
C 16.5298 19.8754 11.5308
O 16.8805 19.8411 12.9167
H 17.474 20.5321 13.1684
C 21.6977 19.2064 12.7289
O 20.4969 19.2224 13.5053
H 20.017 20.0295 13.3993
C 17.4924 29.1936 15.9947
O 16.4017 29.004 15.0896
H 16.4725 0.82876 14.3448
C 2.65097 27.2071 23.171
O 4.04101 26.8867 23.0709
H 4.23141 26.1002 22.5829
C 12.7689 8.78531 12.9058
O 11.3721 8.51248 12.7665
H 11.2879 7.64222 12.4079
C 18.4609 15.6902 14.2008
O 17.4874 14.7565 13.7261
H 17.8003 14.559 12.8566
C 12.5141 25.2966 25.5763
O 12.0774 24.3088 24.6391
H 12.809 23.9145 24.1894
C 28.8617 10.5419 15.5471
O 1.3573 9.86735 15.3681
H 1.18163 9.20829 14.714
C 5.22887 10.8106 2.22692
O 4.88441 10.2235 0.969296
H 4.42692 9.41399 1.13767
C 5.31742 22.128 18.824
O 5.78559 20.839 18.4189
H 6.40559 20.5358 19.0644
C 0.852058 17.4879 2.68992
O 29.369 18.7706 3.27655
H 28.678 19.1762 2.77556
C 2.10431 28.2272 28.969
O 2.35145 0.844847 28.6426
H 3.26467 0.996468 28.4527
C 1.32799 2.66132 14.7512
O 0.758629 3.91461 15.1384
H 28.613 3.84953 14.8517
C 21.1635 7.74937 6.72295
O 21.0474 8.86066 7.61539
H 21.8476 8.79987 8.11447
C 19.9227 13.3686 23.5504
O 21.0246 14.2439 23.8043
H 20.9453 14.723 24.615
C 16.6181 26.7103 27.8042
O 16.9299 25.8468 26.7079
H 17.5843 26.2495 26.1578
C 3.86115 7.19445 16.7691
O 4.26761 6.11574 17.6153
H 3.58876 5.45896 17.644
C 9.90161 23.2457 20.0191
O 8.47188 23.2721 20.0099
H 8.27467 23.3295 20.9323
C 15.8373 12.048 1.83483
O 15.2544 12.7312 0.722017
H 14.3533 12.9534 0.900083
C 16.3618 4.92545 28.0809
O 17.6764 4.79897 28.6293
H 17.9697 3.90989 28.5008
C 10.0529 5.28573 24.2579
O 11.3566 5.06378 23.7138
H 11.4359 5.75265 23.0718
C 11.5034 28.476 6.29725
O 11.0209 29.0868 7.49684
H 11.6239 28.8762 8.19332
C 17.7059 15.8447 1.91002
O 18.8862 16.1967 1.18357
H 19.472 16.6501 1.77039
C 10.8295 3.21631 3.45086
O 10.1439 3.69717 4.60998
H 9.22682 3.74666 4.38727
C 29.0252 4.02366 11.1244
O 29.0526 3.05938 10.0688
H 28.8526 2.23879 10.4927
C 17.2028 4.81641 4.65901
O 18.388 5.60617 4.7877
H 18.4645 6.16539 4.02978
C 3.26892 16.6848 24.4073
O 1.9818 16.9448 23.841
H 2.07833 17.708 23.2921
C 29.103 3.45678 1.61862
O 27.8335 3.33075 2.26472
H 27.3953 2.67377 1.7457
C 8.36487 25.7073 8.64699
O 9.77998 25.5035 8.67542
H 10.0017 25.0014 7.90615
C 25.8289 5.16312 19.2743
O 25.4631 3.78122 19.3123
H 24.5397 3.69577 19.1306
C 9.21016 17.9108 5.73523
O 10.5168 18.4732 5.5896
H 10.6321 18.4362 4.65239
C 24.5221 17.3837 1.41564
O 25.2545 17.2892 2.64015
H 26.0274 17.8324 2.61716
C 12.6226 25.8374 21.6168
O 12.8409 24.4264 21.6968
H 13.2892 24.2919 22.5177
C 4.13465 23.8169 25.7631
O 3.35784 22.9279 24.9561
H 2.52651 23.2961 24.6986
C 2.162 26.3082 4.68229
O 2.83214 26.4978 3.43336
H 2.14139 26.289 2.82321
C 15.2351 21.0623 3.14202
O 16.2425 21.2793 2.15055
H 15.7981 21.9478 1.65189
C 4.08477 5.62205 24.4051
O 4.98667 6.7003 24.6675
H 4.57569 7.54373 24.5546
C 24.8335 17.7938 25.8767
O 25.5718 17.3399 27.0141
H 25.488 16.3992 26.98
C 27.8367 11.3847 20.839
O 29.0443 11.5129 20.0839
H 0.73153 12.253 20.4736
C 27.9661 18.3872 18.5192
O 27.1922 18.5192 19.7144
H 27.798 18.7438 20.404
C 10.5183 28.1747 2.68002
O 9.94495 28.1012 1.37206
H 9.6147 27.2301 1.21304
C 10.2609 13.2644 6.14283
O 11.6012 12.8052 5.94842
H 12.0377 13.6227 5.76369
C 0.930834 25.3529 14.1907
O 29.1558 24.1279 13.6749
H 28.8752 24.4128 12.8187
C 6.47989 3.63914 21.2586
O 6.58983 3.92507 19.8618
H 6.20872 4.76992 19.6774
C 10.3603 1.02379 18.8512
O 9.05815 0.722194 19.3595
H 8.39433 1.06034 18.7781
C 16.6204 7.04799 23.2151
O 16.355 5.9499 22.3383
H 15.6811 5.36479 22.6489
C 20.675 26.1281 5.47815
O 21.4294 25.8625 6.66359
H 21.2797 26.5566 7.28711
C 9.7692 11.5631 13.3312
O 9.77391 10.2578 13.9152
H 10.1247 9.6141 13.3189
C 27.1952 2.92486 5.67848
O 26.4012 3.09398 4.50124
H 26.9831 3.1162 3.757
C 14.2737 15.6968 27.8109
O 12.9131 15.7191 28.2504
H 12.3769 16.221 27.6557
C 3.15299 21.5302 11.7806
O 3.3484 22.869 12.2436
H 2.57621 23.0626 12.7528
C 9.27255 6.65383 14.8322
O 9.54273 6.67863 16.2362
H 9.4344 5.80355 16.5761
C 1.48982 15.6063 6.77947
O 29.2442 14.5856 6.69654
H 28.4968 15.0368 7.05818
C 1.65057 8.66835 1.3766
O 2.80898 8.17217 2.05247
H 3.42962 7.77816 1.45868
C 13.5029 3.29128 6.32245
O 14.3716 3.42038 5.19396
H 14.2535 4.3027 4.87682
C 8.18362 0.968263 12.0523
O 9.39713 28.985 12.2284
H 10.1334 0.775373 12.4656
C 13.0848 0.739546 15.7511
O 12.379 1.86797 15.2281
H 12.3715 2.60571 15.8186
C 9.68487 5.04418 19.0651
O 9.60963 4.18053 17.9279
H 8.70987 4.20455 17.64
C 22.0902 23.0772 17.0196
O 22.9087 22.9483 15.8541
H 23.4275 22.1717 15.9984
C 15.3583 22.9081 14.8973
O 15.5883 22.6533 16.2855
H 16.0214 23.4359 16.5905
C 16.7147 14.3276 17.3404
O 16.615 13.4046 16.2527
H 16.9521 13.8334 15.481
C 14.4371 2.13101 18.5967
O 15.7967 1.81761 18.9098
H 16.1545 2.62587 18.5756
C 25.645 23.1048 1.98939
O 26.434 22.142 2.69325
H 26.7246 22.7017 3.39707
C 1.21954 25.623 18.2778
O 28.8842 25.7711 19.1941
H 28.5521 26.6551 19.1591
C 10.9121 24.6063 13.8181
O 11.2378 24.3299 12.4533
H 11.0622 25.077 11.9018
C 15.5198 7.82949 6.16521
O 15.7211 9.08136 6.82642
H 14.9572 9.62029 6.68847
C 13.798 18.2917 8.00201
O 14.6072 19.3855 8.44199
H 15.2962 19.4305 7.79678
C 11.239 20.994 24.3068
O 11.0108 22.0001 25.2971
H 11.3402 22.8068 24.9314
C 20.2568 9.13937 21.9178
O 19.9774 7.8771 21.3066
H 19.7732 8.08439 20.4076
C 12.6675 6.87948 20.9909
O 11.7756 7.07787 22.0909
H 11.972 7.94937 22.399
C 22.4545 6.88549 27.516
O 21.8099 8.0625 27.022
H 22.218 8.8559 27.3335
C 20.0271 21.4887 10.2774
O 21.3977 21.519 9.87081
H 21.5959 22.3806 9.537
C 1.98382 21.7882 18.4636
O 0.905609 21.3884 17.6136
H 1.14511 20.9303 16.8225
C 3.44225 27.9578 16.2797
O 3.60416 28.715 15.0775
H 4.07596 28.157 14.4782
C 19.5912 4.56328 8.37472
O 20.2774 3.34006 8.09602
H 20.587 3.40004 7.20519
C 1.35382 12.9747 23.6708
O 29.0679 12.5056 24.5348
H 28.2823 12.8638 24.1508
C 7.07824 5.93045 6.97808
O 7.50853 5.54074 8.28494
H 8.26497 4.98599 8.17056
C 18.7449 25.2306 9.70561
O 19.0824 26.1953 10.7057
H 19.6043 26.8417 10.2554
C 23.7083 27.7373 2.4759
O 23.36 27.6122 1.09462
H 24.1053 27.1825 29.4561
C 28.266 12.5297 11.3533
O 0.903706 12.2004 11.2907
H 1.21952 12.3887 10.4202
C 4.79897 16.8288 19.8752
O 4.63513 18.2438 20.0018
H 4.60849 18.5296 19.1014
C 26.4144 14.5893 0.727851
O 25.5182 13.9532 28.5654
H 25.9617 13.9537 27.7309
C 15.1888 8.10961 9.95124
O 16.5382 8.50146 9.6856
H 16.4838 8.87339 8.81857
C 0.998351 21.92 1.89996
O 1.93981 21.6997 0.846381
H 2.10853 22.5644 29.2569
C 6.1141 20.7542 7.34469
O 7.00747 21.7661 7.81687
H 6.73493 22.6207 7.51956
C 25.1156 24.1307 7.89988
O 25.8726 23.1366 7.20441
H 25.9815 22.3773 7.75632
C 3.10369 15.3838 10.9843
O 1.97597 15.014 10.1866
H 2.18747 14.2173 9.72449
C 8.90936 11.0214 3.67122
O 8.6081 10.047 4.67352
H 9.4212 9.87338 5.12269
C 27.4396 12.0036 4.88211
O 28.4016 13.037 4.65498
H 28.4785 13.7069 5.31709
C 18.1049 8.11924 27.6701
O 18.8768 8.50233 26.5289
H 19.7048 8.04807 26.4946
C 6.34106 14.1474 28.7313
O 5.01644 14.3878 29.2135
H 4.35597 14.0843 28.6096
C 14.1174 17.3475 23.9268
O 13.163 18.3961 24.1126
H 13.126 18.8023 23.2601
C 13.0774 19.6364 13.0884
O 14.1973 20.007 13.8968
H 14.9179 20.2108 13.3205
C 9.88225 21.8665 5.58206
O 9.62782 22.6607 6.74373
H 9.14342 22.1257 7.35384
C 13.531 16.0188 4.82424
O 13.4273 14.7415 5.45895
H 14.1807 14.1734 5.51024
C 24.2533 9.72049 5.88369
O 23.8642 10.739 6.80904
H 23.4385 10.2827 7.51874
C 18.4787 0.834633 7.65748
O 18.8855 28.2213 7.77549
H 19.8242 28.3285 7.79328
C 23.228 1.48703 5.53958
O 24.5485 1.0812 5.17005
H 24.8976 1.8366 4.72224
C 14.3318 3.29574 10.4092
O 14.2135 3.75696 11.7576
H 14.7326 4.54647 11.7422
C 21.9557 4.32459 19.5138
O 22.8352 3.37987 18.8983
H 22.5829 2.50803 19.1615
C 19.7083 11.8556 27.848
O 19.5431 11.1392 26.6215
H 19.2224 10.3052 26.9292
C 12.561 17.0918 16.9044
O 11.85 16.772 15.7057
H 11.3058 17.4936 15.4295
C 15.6059 14.5082 9.26185
O 16.4817 14.1654 8.18466
H 17.2729 14.6653 8.31577
C 22.7878 5.4569 23.86
O 23.3759 4.3945 23.1048
H 22.8372 3.63328 23.2576
C 11.5556 19.8878 2.47195
O 10.6231 18.909 2.93803
H 9.78265 19.1863 2.60674
C 5.44439 21.5239 1.30073
O 5.84209 20.3139 1.95079
H 5.26061 20.1327 2.67334
C 5.23083 6.32603 28.3854
O 4.81369 7.24783 29.3959
H 5.412 7.07979 1.35532
C 12.5139 5.00457 16.52
O 12.1475 3.7382 17.074
H 11.2325 3.75935 17.3093
C 12.7758 10.2045 2.7945
O 12.8452 9.00668 3.57253
H 12.2526 8.98779 4.30844
C 4.55026 9.67468 26.6452
O 3.41975 10.3142 27.2434
H 3.82329 10.6121 28.0443
C 19.8036 29.3729 22.7969
O 20.5304 1.68862 22.184
H 19.9616 2.07392 21.5351
C 25.7443 28.4128 9.208
O 26.8222 27.8736 9.97757
H 27.2735 27.147 9.57577
C 15.1972 28.9957 4.765
O 15.9781 1.39784 5.08432
H 15.3017 2.04164 5.22926
C 4.38701 2.41371 10.5007
O 5.62539 3.07848 10.7641
H 6.20669 2.91877 10.0363
C 11.6764 22.5968 28.4123
O 12.7579 21.7978 28.8989
H 12.9435 21.1741 28.2136
C 11.719 1.61984 23.5658
O 12.6242 2.66495 23.2006
H 12.0987 3.44113 23.3209
C 29.3936 28.6052 12.1133
O 28.826 29.2091 10.9479
H 27.9796 28.8273 10.772
C 26.0867 1.63981 12.8922
O 27.1134 1.70394 13.8855
H 27.2478 2.59879 14.158
C 2.12313 23.2896 8.10415
O 2.18242 24.661 8.50485
H 3.0304 24.8979 8.84814
C 19.7302 12.6236 3.47693
O 20.438 11.3907 3.63177
H 20.3347 11.1827 4.54779
C 6.03696 12.4125 11.9782
O 7.20174 13.0287 11.4228
H 7.18931 13.9263 11.7179
C 16.9321 18.802 5.57495
O 16.6836 19.5763 6.75117
H 17.0926 20.4186 6.62339
C 10.6388 15.6099 8.98582
O 10.1666 14.683 9.96696
H 9.663 13.9525 9.64157
C 11.6302 25.6296 17.3105
O 13.0396 25.8682 17.2698
H 13.3421 25.1113 17.7481
C 20.3412 19.082 2.78442
O 20.476 17.6849 3.05774
H 21.3021 17.5615 3.49975
C 12.2222 11.725 10.1216
O 11.2477 10.9872 9.37937
H 10.428 11.4569 9.40209
C 3.43268 1.53586 25.2442
O 3.77831 2.07903 23.9673
H 4.29288 1.4206 23.5261
C 10.5397 18.0008 27.5208
O 10.9896 16.9504 26.661
H 10.2218 16.6171 26.2223
C 16.7671 18.7624 28.0145
O 16.0718 18.3525 26.834
H 16.1799 17.4206 26.7197
C 14.2682 15.126 12.8099
O 15.0416 13.9688 13.1379
H 15.889 14.3077 13.3829
C 22.4338 6.9455 3.55643
O 23.8092 7.03837 3.93667
H 24.2081 7.57083 3.26554
C 22.8328 14.6392 14.7974
O 21.7369 15.1802 15.5399
H 21.5605 14.564 16.2343
C 6.56728 3.19998 4.28125
O 7.58513 4.15513 3.97044
H 7.1931 4.82949 3.43699
C 22.6914 14.3543 1.91616
O 23.1615 14.5366 3.25432
H 23.5627 15.3922 3.25824
C 22.9738 28.6616 12.8364
O 21.9808 29.0829 13.7753
H 21.6462 28.4122 14.3507
C 15.7519 17.3063 15.5072
O 15.6121 18.0012 16.7492
H 15.1852 18.8247 16.5688
C 23.8731 21.0613 24.082
O 25.2374 20.8911 23.689
H 25.1543 20.6747 22.7729
C 26.0173 2.85615 26.7706
O 26.1443 1.5487 26.2055
H 25.7019 0.954155 26.7919
C 28.0401 7.98435 4.71364
O 27.3973 7.40126 5.8502
H 26.7601 6.72925 5.66221
C 26.1543 25.4888 15.5654
O 25.6457 26.684 14.9674
H 25.2866 27.1314 15.7183
C 2.72237 18.8568 8.94727
O 1.36072 19.0735 8.56796
H 0.924233 18.3303 8.95545
C 20.5742 3.33495 26.1545
O 20.9192 1.96005 26.3431
H 20.0919 1.50602 26.3926
C 21.652 26.6678 20.5059
O 22.9667 27.2148 20.6373
H 22.9637 27.7966 21.382
C 2.97939 12.6146 14.2491
O 2.87352 11.8053 13.0748
H 2.12884 12.0955 12.5705
C 26.7813 9.02483 8.65067
O 27.9853 8.60735 8.00188
H 27.6269 8.09052 7.29658
C 25.3441 16.8868 16.2731
O 25.3165 18.1409 16.9597
H 25.1004 17.9713 17.8639
C 28.4259 27.6791 26.0134
O 28.5329 26.3579 25.477
H 28.235 26.3487 24.5803
C 15.7099 7.78804 14.3843
O 15.9313 7.48915 15.765
H 15.6011 8.1394 16.366
C 11.8596 11.5089 26.6301
O 10.8462 11.4317 25.6241
H 10.5707 10.5317 25.5399
C 10.2012 15.1853 13.3252
O 10.6685 15.9378 12.2026
H 10.2612 15.5466 11.4449
C 18.2932 23.559 0.795952
O 18.4921 22.1533 0.966651
H 17.7395 21.8363 1.44224
C 22.2526 24.1726 28.7427
O 21.9168 22.7904 28.8896
H 21.203 22.5657 28.3124
C 5.93061 0.939884 1.49136
O 5.17659 0.885882 29.03
H 5.63481 29.0937 28.4084
C 10.985 4.61648 11.7157
O 10.7828 6.02813 11.6096
H 11.2576 6.26532 10.8277
1500
 Atoms. Timestep: 90000
O 11.0622 15.92 21.8759
H 10.7484 16.8693 21.8545
H 11.7649 15.817 22.5799
O 14.7304 9.23943 21.6887
H 15.6087 8.88756 21.3649
H 14.6766 10.2211 21.5056
O 13.512 18.364 29.3764
H 14.4996 18.2305 29.2938
H 13.0432 17.497 29.2075
O 7.81345 8.41865 6.81597
H 7.62486 8.31093 5.83983
H 7.06722 8.92725 7.24547
O 18.6839 1.11452 23.5612
H 17.9754 0.987064 22.8672
H 19.2117 29.0231 23.6577
O 17.5222 27.2472 16.3605
H 17.8232 28.1194 16.7461
H 16.6109 27.026 16.7077
O 4.38309 12.3414 13.7403
H 3.6881 12.9909 14.0489
H 5.05791 12.2057 14.4657
O 28.3052 8.41633 25.8179
H 27.7008 9.12218 25.4484
H 29.2184 8.51973 25.4237
O 26.4293 23.3804 15.7812
H 25.788 24.1476 15.7677
H 26.9303 23.3799 16.6466
O 18.4337 3.8142 23.5814
H 18.8991 2.92913 23.5769
H 17.5179 3.71117 23.1931
O 6.48874 19.4401 15.4784
H 7.25574 19.9379 15.0735
H 6.83677 18.7529 16.1161
O 27.4308 22.7005 1.60847
H 26.6614 23.1664 2.04538
H 27.5461 21.7942 2.01515
O 16.2583 25.504 12.4864
H 16.5144 25.4408 11.5218
H 16.1951 26.4659 12.7522
O 15.698 3.43765 23.1667
H 15.9428 2.46823 23.1838
H 15.0608 3.60731 22.4149
O 10.9141 9.42019 23.2963
H 11.723 8.96046 22.9298
H 10.6102 10.123 22.6531
O 9.54818 23.4961 10.5025
H 9.64127 23.3951 9.51192
H 10.1122 22.81 10.9619
O 8.68123 8.79064 25.0432
H 9.485 9.13568 24.5585
H 8.01524 8.44644 24.3814
O 15.7615 21.04 18.4318
H 16.2417 21.788 18.89
H 16.4092 20.308 18.2206
O 22.0053 0.890143 10.0113
H 22.3079 1.29828 10.8726
H 21.9824 1.59228 9.29967
O 17.2492 15.6368 12.6354
H 17.3127 16.6128 12.8438
H 17.8879 15.4108 11.8999
O 8.40892 10.987 14.8004
H 7.62358 11.2745 15.3486
H 8.79803 11.781 14.3334
O 24.6747 22.364 12.7994
H 25.5199 22.4398 13.3285
H 24.1842 23.235 12.8282
O 14.077 16.5494 20.485
H 13.6433 16.2948 21.3493
H 13.5753 16.1352 19.7256
O 19.7926 9.47939 11.2731
H 18.7989 9.51861 11.3786
H 20.2293 9.88673 12.0752
O 24.9312 3.99097 24.6066
H 24.0207 3.89113 24.2053
H 24.9049 3.71113 25.5663
O 21.578 17.1627 8.1377
H 22.0334 17.9339 7.69278
H 21.6983 16.3395 7.58292
O 6.23504 4.93298 5.77607
H 7.00891 4.40463 6.12531
H 5.57854 5.08995 6.51389
O 7.01512 5.25318 16.942
H 7.86257 4.72431 16.8959
H 6.81768 5.64538 16.0436
O 3.96703 25.0138 5.6527
H 3.34395 24.3278 6.02851
H 3.88701 25.8605 6.17866
O 12.2965 15.7774 18.3228
H 11.4272 15.5913 18.7807
H 12.1214 16.2107 17.4387
O 26.6056 9.10113 22.0957
H 26.0427 8.33838 21.7774
H 27.5224 8.76898 22.3174
O 27.1186 26.135 20.5786
H 27.1792 25.9974 19.59
H 26.3313 25.6336 20.9373
O 23.6536 14.5491 20.019
H 23.8656 13.5754 19.9359
H 22.6618 14.6726 20.0529
O 9.67116 7.13127 26.8721
H 10.6543 7.10931 26.6906
H 9.23812 7.8115 26.2807
O 28.4135 14.9047 25.2611
H 28.1299 15.7443 24.7978
H 28.0878 14.1127 24.7447
O 19.1766 13.6673 25.4182
H 18.3547 13.705 24.8498
H 19.7706 14.4408 25.1971
O 21.7266 26.153 3.10802
H 22.1957 25.5619 2.4519
H 21.88 25.81 4.03475
O 21.5285 22.7633 7.64514
H 21.0638 23.4406 7.07484
H 22.2745 23.2037 8.14474
O 23.3455 27.0352 29.1854
H 23.0677 27.0881 28.2262
H 23.4158 26.0761 0.707123
O 7.06698 12.3287 5.88373
H 6.67803 12.2771 4.96391
H 7.26978 11.4061 6.21204
O 28.7076 9.90102 16.381
H 28.0661 10.4111 16.954
H 28.7794 10.3426 15.4866
O 15.2989 4.63481 29.2077
H 14.875 5.20076 28.5006
H 15.8711 3.93669 28.7773
O 13.859 7.24091 23.3821
H 13.6771 6.40434 22.8653
H 14.0462 7.99069 22.7474
O 19.2977 2.12859 5.60979
H 18.7827 2.82118 5.10474
H 18.6828 1.6436 6.23167
O 2.18783 23.4614 27.8846
H 1.39165 23.9189 28.2806
H 2.38592 23.8547 26.9868
O 26.9729 26.8149 1.176
H 26.3956 27.2281 29.2242
H 26.5453 26.9373 2.07164
O 11.9901 19.3933 9.7914
H 11.7261 18.4448 9.9667
H 11.7626 19.6336 8.84777
O 0.889811 7.46569 17.1152
H 29.2192 8.34541 16.8982
H 1.4548 7.16865 16.3454
O 1.87388 19.6282 12.4727
H 1.65767 20.3211 13.1605
H 1.03338 19.3409 12.0133
O 24.724 1.13126 28.3024
H 25.1827 29.0495 27.9965
H 23.7635 1.10419 28.0253
O 23.3248 24.7525 11.9158
H 22.5663 24.9597 12.5336
H 24.0548 25.4231 12.0474
O 6.10973 5.29785 3.01738
H 5.99932 4.91886 3.93618
H 5.4979 6.08067 2.904
O 24.1752 18.3728 18.9419
H 23.6646 18.7124 18.1519
H 25.0323 18.8807 19.0281
O 20.4594 13.5322 19.4364
H 20.9832 12.7291 19.7204
H 19.4818 13.3372 19.5145
O 17.2724 22.4182 21.8323
H 17.3658 21.5992 22.3985
H 17.5174 23.2249 22.37
O 25.3599 29.2389 12.3782
H 24.6537 1.18054 12.2387
H 26.1498 0.900681 12.8303
O 20.5211 20.2541 21.8488
H 19.637 20.5233 22.2308
H 20.4347 19.3622 21.4048
O 28.8378 5.71919 21.4934
H 29.0617 4.81145 21.8482
H 28.5631 5.64399 20.5348
O 12.5762 7.42992 25.8516
H 12.8446 7.45305 24.8886
H 13.3378 7.08747 26.4018
O 12.5358 5.73847 6.61652
H 13.0683 6.53434 6.90471
H 11.5639 5.97361 6.6063
O 11.1519 18.5395 20.0477
H 10.8951 17.6678 19.6303
H 12.0094 18.8614 19.6463
O 5.77799 6.8626 18.6151
H 4.84575 6.53689 18.7727
H 6.24644 6.24121 17.987
O 17.4533 5.19616 25.5841
H 17.9104 4.69859 24.8469
H 16.9748 5.98818 25.205
O 4.09203 27.5663 6.84191
H 4.30109 28.1021 6.02389
H 3.6015 28.1387 7.49897
O 20.0288 1.61642 0.895756
H 20.5644 2.12021 28.9705
H 20.3751 0.680896 0.965762
O 12.7682 1.6739 12.2582
H 12.3293 2.38314 12.8099
H 12.6136 0.780371 12.6798
O 4.12786 23.3639 20.3939
H 5.08838 23.4311 20.6639
H 4.01832 22.6204 19.7342
O 4.68835 17.6768 18.4538
H 4.036 18.4337 18.4151
H 4.62194 17.1364 17.615
O 25.9443 18.5779 3.78522
H 26.1232 19.2746 4.47997
H 26.3652 17.7144 4.06293
O 25.6793 27.8018 27.0186
H 24.8676 28.0317 26.4816
H 25.9063 26.8373 26.8832
O 0.972905 15.9529 8.52731
H 1.66194 16.6723 8.61464
H 28.9135 16.322 8.075
O 5.65024 16.8357 3.59729
H 6.63821 16.9877 3.56882
H 5.45833 15.8642 3.45797
O 27.6863 25.5753 11.6498
H 28.6086 25.885 11.4186
H 27.648 24.5772 11.6017
O 3.4627 12.6871 27.0562
H 3.22779 12.0312 27.7735
H 4.32622 12.4189 26.6291
O 26.9055 9.62976 1.04613
H 26.9758 10.3853 29.1473
H 27.4255 8.84648 0.705416
O 14.2447 23.0852 10.6948
H 14.3943 24.0628 10.5471
H 13.403 22.9521 11.2181
O 21.11 29.0312 4.95512
H 21.5113 29.3161 4.08463
H 20.5659 1.02808 5.33249
O 16.3997 25.8985 9.7612
H 16.153 26.8649 9.68886
H 15.9514 25.3844 9.02995
O 8.8611 3.38245 3.56458
H 8.29521 3.50244 2.74887
H 9.8236 3.332 3.29805
O 20.3593 10.2208 13.7836
H 19.9066 10.7546 14.4979
H 20.7305 9.38102 14.1798
O 14.7288 11.8389 5.9145
H 15.6708 12.1411 5.76821
H 14.3564 12.2897 6.72577
O 1.42668 7.89957 3.88012
H 1.83478 7.97619 4.78983
H 0.81471 8.67468 3.72297
O 17.825 3.05775 1.08958
H 17.5038 2.98212 28.8981
H 18.6469 2.50053 1.20768
O 6.24504 2.30391 17.5719
H 5.91584 2.34688 16.6287
H 5.55644 2.69378 18.1834
O 15.7364 18.5034 20.9133
H 15.56 19.2663 20.2913
H 15.1249 17.744 20.6912
O 25.6714 20.8968 10.8567
H 25.1379 20.159 10.4431
H 25.1074 21.3818 11.5249
O 9.24299 7.77351 21.7889
H 8.37895 7.57825 22.2529
H 9.86932 8.22283 22.426
O 5.38648 3.94585 9.64395
H 5.86658 3.41683 8.94421
H 4.95082 3.32213 10.2929
O 17.9253 10.0213 20.1385
H 17.901 10.6159 20.9421
H 17.6535 9.09532 20.4006
O 9.49995 23.3878 7.87067
H 9.49244 24.3203 7.50951
H 8.92541 22.8037 7.29736
O 24.5611 5.48776 7.29016
H 23.9874 6.08243 6.72695
H 24.7596 4.64494 6.78989
O 26.7113 16.1838 4.64574
H 26.3421 16.1566 5.57468
H 27.528 15.609 4.59475
O 23.1134 17.0208 23.9838
H 22.666 17.9092 24.0868
H 23.5625 16.9753 23.0915
O 5.77685 20.5075 20.5207
H 5.63093 20.456 21.5086
H 6.70163 20.195 20.3036
O 6.0111 10.8181 1.74873
H 6.78111 11.4151 1.52355
H 5.82168 10.2125 0.975804
O 26.3595 6.24023 24.1375
H 27.1418 6.16266 24.7555
H 25.7313 5.47885 24.2978
O 22.5494 20.4748 14.506
H 23.081 19.8081 15.0285
H 23.1353 20.9025 13.8177
O 2.42717 25.3207 24.8107
H 2.30254 24.3456 24.6275
H 1.64726 25.8305 24.4475
O 14.2194 11.9151 20.9173
H 13.6625 12.2964 21.6552
H 14.0168 12.3959 20.0642
O 1.77204 22.7416 24.2829
H 1.15503 21.9587 24.3636
H 1.89979 22.9671 23.3171
O 18.9029 26.4726 3.42101
H 18.7309 27.3141 2.90899
H 19.8561 26.1965 3.29787
O 15.4117 18.6684 23.778
H 15.606 18.5987 22.7995
H 15.0416 19.575 23.9806
O 8.76195 28.3506 11.4397
H 9.25141 29.1363 11.0614
H 9.29601 27.5194 11.2854
O 2.7441 15.6631 25.2427
H 1.80479 15.68 24.9001
H 2.88178 14.8425 25.7975
O 0.73656 11.2456 6.83418
H 1.27937 12.027 6.52649
H 1.25564 10.4027 6.69245
O 17.5126 10.3342 12.2599
H 16.5146 10.3685 12.314
H 17.8997 10.4345 13.1765
O 17.5193 22.7637 27.1595
H 16.5359 22.582 27.1539
H 17.8282 22.8975 28.1011
O 27.7131 24.3693 24.871
H 27.9803 23.4441 24.6014
H 28.0842 25.0276 24.2161
O 29.3784 5.03721 18.4057
H 29.2911 5.91553 17.9357
H 28.6659 4.41416 18.0828
O 7.80914 4.88416 0.978634
H 8.5974 5.49493 1.05363
H 7.09703 5.17927 1.61567
O 2.83812 8.47514 11.3727
H 3.61091 9.10705 11.4318
H 2.09536 8.90408 10.8586
O 8.82923 3.85531 6.17579
H 8.79887 3.83294 5.1765
H 9.09903 4.76868 6.4807
O 12.5415 9.20146 27.8625
H 13.4855 9.51074 27.9775
H 12.455 8.71019 26.9958
O 16.9839 3.15158 27.1987
H 16.4946 2.36342 26.8253
H 16.9703 3.89808 26.5335
O 24.9328 15.6114 17.3781
H 24.2843 15.1213 17.9605
H 24.4431 16.0309 16.6137
O 14.1822 26.6335 14.2907
H 14.8904 27.2917 14.0352
H 14.2729 26.4058 15.2602
O 16.6294 13.8245 7.41446
H 16.8885 13.5857 8.35032
H 16.9678 13.1242 6.78592
O 23.0942 28.4866 2.75991
H 22.5036 27.702 2.94824
H 23.517 28.3773 1.86032
O 16.6381 25.5652 26.742
H 16.484 24.9773 27.5361
H 16.4978 26.5205 27.0022
O 5.9851 28.4218 11.0443
H 5.78618 27.4943 10.7277
H 6.93251 28.47 11.3607
O 5.41159 2.53026 15.1394
H 5.66199 3.30948 14.5649
H 5.85821 1.70468 14.7946
O 8.41874 20.492 13.4224
H 7.71885 20.5894 12.7148
H 9.32074 20.6589 13.0242
O 8.29534 16.6408 2.81144
H 8.19635 16.7959 1.82851
H 9.22553 16.3307 3.00794
O 17.0376 13.4463 28.8344
H 17.3145 14.3596 29.133
H 16.1749 13.1988 29.2754
O 27.2919 6.73795 12.4434
H 27.4289 7.25745 11.6
H 28.0156 6.96414 13.0955
O 18.9459 12.0977 27.4063
H 19.1277 12.6799 26.6139
H 18.2012 12.4915 27.9453
O 16.8406 14.5327 23.4628
H 17.2556 15.0631 22.7235
H 16.373 15.1508 24.0947
O 19.3871 3.73391 12.2119
H 20.296 4.13512 12.098
H 18.6912 4.41489 11.9838
O 4.25626 7.93466 5.94041
H 4.65287 7.11981 6.36315
H 4.05169 7.74586 4.97994
O 19.4495 24.0066 17.9241
H 19.7067 24.9533 17.7299
H 19.4142 23.4888 17.0694
O 22.8725 2.83794 19.7991
H 23.7514 2.85847 20.2756
H 22.6291 1.89096 19.5893
O 8.47271 19.296 19.6912
H 8.3153 18.5836 19.0072
H 9.34805 19.1333 20.1465
O 22.8315 27.2796 26.3711
H 22.05 27.5721 25.8198
H 23.1285 26.3723 26.0734
O 6.4437 26.6115 4.94422
H 5.71442 25.9283 4.90669
H 6.09982 27.4853 4.6005
O 8.43246 19.5765 29.262
H 9.39127 19.4224 0.748131
H 7.86699 18.8637 0.924432
O 13.2676 4.4231 4.41517
H 14.0001 4.94042 3.9725
H 12.9527 4.91776 5.2252
O 27.6719 22.8252 11.0821
H 28.4889 22.3526 10.7515
H 26.8579 22.3078 10.8181
O 15.0936 25.6926 7.34192
H 15.7081 26.0146 6.6216
H 14.1783 26.0658 7.19065
O 20.3967 28.2106 25.5533
H 20.129 27.6376 24.7787
H 19.9561 29.1048 25.4743
O 28.6038 9.89193 3.40051
H 28.1025 9.57574 2.59507
H 27.9569 10.2278 4.08512
O 20.4908 5.61156 22.7647
H 19.7162 5.07673 23.1021
H 20.5366 6.47995 23.2585
O 11.5759 2.89263 6.85401
H 10.6023 3.0885 6.73625
H 12.1003 3.73842 6.75585
O 4.0016 19.0346 28.4484
H 3.6243 19.9532 28.5667
H 3.52898 18.5744 27.6969
O 27.9656 2.4177 16.8207
H 27.2795 2.97968 17.2826
H 28.2205 1.65124 17.4102
O 5.08633 25.4381 11.6345
H 5.10696 25.6251 10.6523
H 5.53278 24.562 11.8164
O 18.7805 1.2779 12.9493
H 19.1415 2.18427 12.7297
H 18.8721 29.4332 12.1525
O 28.937 24.7071 29.3076
H 28.72 25.6055 0.936805
H 28.4525 24.0002 1.0703
O 9.9978 15.7208 19.57
H 10.5127 15.6266 20.4221
H 9.08788 15.3222 19.6846
O 8.9067 19.7642 24.0888
H 8.69938 19.5865 25.0509
H 9.85382 19.5057 23.8987
O 15.8803 7.83867 25.0442
H 16.2155 8.77269 24.9208
H 15.1842 7.64044 24.3542
O 10.9001 18.8047 1.41522
H 11.8962 18.8916 1.40077
H 10.6364 18.1015 2.07547
O 13.044 13.0978 18.4308
H 12.9507 14.0766 18.2488
H 12.2334 12.6176 18.0957
O 1.10173 9.24378 9.2904
H 0.933245 10.1979 9.53783
H 29.0911 8.67848 9.60361
O 10.3751 26.3246 7.77435
H 9.80072 26.0929 6.98918
H 11.2804 26.6037 7.45428
O 12.0262 27.7734 13.3754
H 11.3703 27.9759 14.1025
H 12.7412 27.1707 13.7298
O 16.3801 28.1529 12.9853
H 15.8494 28.6687 12.3127
H 17.1805 28.6865 13.2585
O 26.947 14.0255 15.9461
H 26.8126 13.3381 15.2323
H 26.0676 14.2419 16.3702
O 27.8806 10.976 27.5354
H 27.6408 10.6276 26.6293
H 28.523 11.7364 27.4409
O 12.1289 27.5304 10.7644
H 12.1766 27.3791 11.7517
H 11.2718 27.1558 10.4108
O 21.3803 3.89319 15.9321
H 20.5972 3.42036 15.5281
H 21.2245 4.01931 16.9118
O 7.88909 13.8062 8.25091
H 7.0696 14.281 8.57184
H 7.7314 13.4561 7.32754
O 17.8273 12.2286 5.57249
H 18.2596 12.1018 4.67977
H 18.0236 11.4386 6.15322
O 26.9298 16.342 19.1184
H 26.0432 15.9064 18.9629
H 27.311 16.6434 18.2445
O 12.9732 16.3896 24.0312
H 13.6641 15.9367 24.5947
H 12.9085 17.3525 24.2929
O 14.6753 6.30455 27.1135
H 15.4317 6.87128 26.7869
H 14.5467 5.53066 26.4934
O 10.6128 1.48237 10.3869
H 11.548 1.32188 10.7026
H 10.6213 2.1573 9.64905
O 17.8198 15.9282 29.3731
H 18.8124 15.9678 29.2582
H 17.5997 15.8485 1.59284
O 26.8751 4.36658 13.9501
H 27.0727 5.17611 13.3973
H 25.8917 4.18535 13.9361
O 14.7002 21.098 24.4959
H 14.9688 21.4983 25.372
H 13.7759 21.3989 24.2614
O 16.8112 12.3219 21.5643
H 15.9686 11.9261 21.1991
H 16.5846 13.0602 22.1996
O 4.19576 20.2934 16.2956
H 5.09655 19.9527 16.0264
H 4.17102 21.2878 16.1922
O 19.4477 11.3678 17.4705
H 19.7169 10.5257 17.9379
H 18.8244 11.8883 18.0541
O 23.22 5.56062 14.8811
H 23.9907 5.88791 15.4278
H 22.6004 5.03192 15.4612
O 28.9904 8.24729 22.7776
H 0.996474 8.3165 23.4255
H 29.0377 7.36914 22.3016
O 4.20697 16.2842 16.0603
H 4.57038 16.5889 15.1799
H 3.68682 15.4398 15.9319
O 21.0585 22.1465 19.8949
H 20.934 21.4569 20.6083
H 20.4096 21.9791 19.1526
O 17.0163 23.4506 19.1564
H 17.9158 23.4856 18.7209
H 17.1161 23.1444 20.1032
O 1.91137 8.6904 6.75378
H 1.71258 8.90771 7.70943
H 2.79772 8.23128 6.69378
O 6.03142 17.8067 1.10208
H 5.27025 18.2788 0.657424
H 5.74456 17.4896 2.00607
O 18.1418 18.2175 13.81
H 17.2409 18.5631 13.5475
H 18.8437 18.8753 13.5369
O 6.03969 20.2082 23.2744
H 7.00875 20.2068 23.5212
H 5.52101 20.7148 23.9631
O 13.3659 24.4594 28.2995
H 12.8272 25.2998 28.3586
H 13.1211 23.8527 29.0558
O 5.78099 8.78251 20.7499
H 5.97921 8.37443 19.8587
H 5.18559 9.57662 20.6278
O 8.52795 22.6893 23.3185
H 8.72922 21.7176 23.4416
H 9.2683 23.2353 23.7106
O 29.3421 2.89513 22.9037
H 29.0193 3.23429 23.7873
H 1.43798 2.38183 23.0334
O 26.3908 25.284 26.9542
H 26.813 25.2295 27.8591
H 27.0052 24.8823 26.2751
O 21.687 5.24161 12.7254
H 21.6134 6.06015 12.1557
H 22.3025 5.42349 13.4922
O 22.6818 16.6922 16.2278
H 22.511 15.8812 16.7874
H 22.117 16.6534 15.4035
O 21.971 1.17403 27.5322
H 21.1655 1.7001 27.2595
H 22.0778 29.1407 26.9231
O 24.394 9.94516 2.30692
H 25.2611 9.90494 1.81034
H 24.4608 10.6221 3.03989
O 11.6158 19.1014 22.8571
H 11.8599 20.0706 22.8248
H 11.5645 18.7393 21.9264
O 28.0797 21.5015 24.0413
H 27.7832 21.4407 23.0882
H 27.6718 20.7541 24.5656
O 26.5817 10.3583 24.7091
H 26.385 9.72517 23.9605
H 25.8374 11.0213 24.7892
O 21.07 18.7296 19.5896
H 21.1274 19.5806 19.0676
H 21.9875 18.3506 19.7111
O 6.13926 23.3825 22.3231
H 7.03384 23.0984 22.668
H 5.45593 23.2822 23.0463
O 10.8556 21.0297 11.653
H 11.5188 21.4496 12.2726
H 11.3386 20.4872 10.9657
O 5.99511 4.6659 13.698
H 6.8567 4.54273 13.2056
H 5.4174 5.31411 13.2019
O 27.135 19.2049 19.8324
H 27.1803 18.2319 19.6061
H 27.7996 19.7071 19.2791
O 22.5568 27.2377 8.63769
H 23.4631 27.4589 8.27765
H 22.3478 27.8404 9.40782
O 1.91863 23.8237 21.7277
H 2.72708 23.8067 21.1394
H 1.74308 24.7619 22.0259
O 13.1757 19.8908 18.6973
H 12.5478 20.459 18.1654
H 14.1005 20.2659 18.633
O 14.1258 3.93643 25.2987
H 13.2663 3.43047 25.3706
H 14.64 3.60905 24.5059
O 7.21791 22.1058 28.6306
H 6.38889 22.0281 29.1844
H 7.78027 21.2885 28.7558
O 9.68766 26.2111 10.2719
H 9.46267 25.2828 10.568
H 10.0238 26.1883 9.33037
O 21.9071 26.6098 5.99789
H 22.2406 26.7909 6.9231
H 21.6627 27.4732 5.5567
O 9.82046 10.007 28.1113
H 10.775 9.82831 28.3498
H 9.5027 9.31281 27.4654
O 10.9595 23.9051 23.4524
H 11.3736 24.6476 23.9789
H 10.8768 24.1813 22.4949
O 25.3738 26.509 12.8298
H 25.2419 27.4781 12.6218
H 26.2686 26.2148 12.4938
O 23.9781 16.9286 21.3104
H 24.0881 17.6787 20.6583
H 24.0344 16.0553 20.8264
O 17.6969 19.0735 18.4646
H 17.3656 18.7895 19.3644
H 17.6409 18.3025 17.8302
O 15.2051 22.9989 7.76511
H 15.1255 23.894 7.32646
H 14.6806 22.997 8.6165
O 28.8108 17.8527 1.29012
H 0.779493 17.1674 1.18909
H 27.9175 17.4118 1.20298
O 29.4126 3.60652 14.7036
H 0.702305 2.90368 15.4137
H 28.4778 3.95485 14.6345
O 23.047 24.4375 9.16484
H 23.2182 24.2792 10.1373
H 22.6719 25.3556 9.0375
O 26.4265 28.8023 21.132
H 26.7657 27.8623 21.0965
H 25.6186 28.8874 20.5488
O 14.858 22.4757 26.8972
H 14.195 21.8191 27.2566
H 14.4536 23.3903 26.8948
O 9.97094 6.42733 7.00143
H 9.78175 6.30148 7.97527
H 9.41719 7.1818 6.64909
O 0.724771 13.4206 27.3064
H 29.1494 14.0443 26.5968
H 1.68037 13.1858 27.1283
O 22.3379 26.5082 23.3561
H 22.7794 25.638 23.1372
H 23.0154 27.243 23.3241
O 23.747 11.9667 19.6926
H 24.7127 11.8459 19.463
H 23.3168 11.0711 19.806
O 25.1977 3.16882 21.6083
H 26.0832 2.80282 21.3223
H 25.3146 3.71315 22.439
O 17.4244 12.4934 10.0697
H 17.8455 13.3523 10.3611
H 17.5064 11.8168 10.8014
O 14.7472 24.2209 17.8753
H 14.3502 23.3366 17.6295
H 15.6763 24.085 18.2195
O 23.8853 24.7399 26.0489
H 23.617 23.8319 26.3706
H 24.834 24.919 26.3097
O 12.913 27.3367 7.37048
H 12.4662 28.0363 6.81278
H 13.414 27.7752 8.11668
O 21.919 19.3795 24.3421
H 21.6631 19.9679 25.1091
H 21.5571 19.763 23.4925
O 27.5354 20.179 2.36153
H 26.9721 19.7761 3.08293
H 27.9666 19.4503 1.82934
O 23.9726 13.8106 7.8834
H 23.8653 13.1321 8.61008
H 23.0758 14.0363 7.50287
O 18.0928 20.2514 23.434
H 18.6683 20.6968 24.1199
H 17.2503 19.928 23.8648
O 27.3476 25.6645 17.9603
H 27.3495 26.1792 17.103
H 28.0858 24.99 17.9458
O 4.67406 6.2334 11.8927
H 4.06244 7.02367 11.8552
H 4.31637 5.50696 11.3059
O 26.3686 12.2079 14.0658
H 25.4372 12.1653 13.7043
H 26.9028 11.445 13.7014
O 26.4435 16.4461 1.28574
H 26.2802 15.4695 1.42558
H 25.5727 16.937 1.31351
O 27.687 2.31092 20.5017
H 28.2841 2.45389 21.2911
H 27.3271 1.37812 20.5207
O 5.18611 17.7806 13.7318
H 5.63816 18.474 14.2929
H 4.38306 18.1808 13.2902
O 1.05094 7.41756 13.3455
H 1.48643 7.49513 12.4487
H 1.68154 6.97833 13.9854
O 25.6073 23.6296 8.60894
H 24.6286 23.7953 8.73067
H 26.0505 23.5787 9.50388
O 20.4722 24.2767 21.7831
H 20.2244 23.8546 20.9111
H 21.1709 23.7221 22.2352
O 4.04833 7.29865 3.1373
H 3.0772 7.48063 3.29153
H 4.18751 7.01342 2.189
O 19.6014 23.4818 15.0982
H 19.1151 24.2315 14.6495
H 20.121 22.9664 14.4168
O 19.5997 10.1347 1.52158
H 19.2314 9.72508 0.686942
H 20.5916 10.2293 1.43686
O 16.4707 25.9517 4.601
H 16.0405 25.2182 4.07474
H 17.3356 26.2082 4.16974
O 21.5597 7.09866 29.0955
H 21.6182 7.95054 0.863439
H 20.7257 6.60914 29.3501
O 24.6954 24.6756 21.1809
H 24.481 24.0519 20.4293
H 24.19 24.3989 21.9982
O 7.05242 23.5277 11.7755
H 6.65316 22.6294 11.5924
H 7.90616 23.6236 11.2637
O 18.2063 25.3937 14.2152
H 18.088 26.1745 14.8286
H 17.5473 25.4559 13.4656
O 29.3978 20.3907 18.7276
H 1.27887 20.2889 19.4945
H 1.00486 19.9042 17.9313
O 21.69 16.7983 0.961301
H 21.7216 15.849 29.4012
H 22.6127 17.1017 1.19947
O 22.8606 20.2846 8.86211
H 23.0846 20.1675 7.89458
H 22.1462 20.9778 8.9573
O 14.7723 28.3311 9.87079
H 14.0078 27.9298 10.3751
H 14.9886 29.2296 10.2528
C 20.3899 13.9441 10.0894
O 19.2284 14.6713 10.4979
H 19.3319 15.582 10.2679
C 5.3544 20.5847 11.6709
O 6.69771 20.9695 11.367
H 6.94109 20.4905 10.5896
C 14.6859 20 8.03309
O 15.0269 20.6404 6.80079
H 15.158 21.5271 7.10007
C 11.9839 3.06482 1.43599
O 11.3866 3.19705 2.72853
H 12.026 3.59901 3.29656
C 8.75726 1.6957 23.1021
O 9.44865 1.9251 24.3327
H 8.87848 1.57081 24.9978
C 18.8854 28.1371 9.57206
O 19.4938 28.7762 10.6973
H 20.3582 29.0765 10.4615
C 25.2274 29.059 18.1675
O 24.4949 28.7972 19.3675
H 24.0264 28.0091 19.1383
C 17.1237 6.86029 21.7185
O 16.7913 7.70933 20.6169
H 16.2638 7.1096 20.1118
C 10.9567 6.71997 1.88636
O 9.89433 6.66478 0.930761
H 10.0349 7.11564 28.8647
C 7.77607 26.6083 1.38497
O 9.02522 26.0353 0.989726
H 8.81783 25.3144 29.1675
C 27.586 18.1955 11.6475
O 28.2677 19.4331 11.4271
H 27.597 20.0835 11.2854
C 27.0409 22.3386 20.6781
O 26.6805 21.2454 21.5267
H 26.8027 20.4262 21.0718
C 23.4636 9.8147 16.8018
O 23.3471 8.67752 15.9426
H 22.5511 8.62563 15.436
C 2.49634 20.7082 21.6825
O 2.99257 20.0084 20.5384
H 3.93723 20.0214 20.5601
C 23.5471 3.18505 2.57139
O 24.3188 2.12211 3.13671
H 23.9734 1.30844 2.80254
C 23.8381 3.46068 11.4847
O 23.2654 2.18784 11.7958
H 23.0268 2.2423 12.7086
C 0.952658 23.4902 4.74631
O 1.87112 23.2281 5.81056
H 2.17363 22.3403 5.69507
C 24.6244 2.60078 15.1857
O 23.3528 2.69734 14.5387
H 22.7502 3.2623 14.9977
C 24.8713 24.0335 5.08923
O 25.0895 24.5093 3.75849
H 25.5237 25.3476 3.80144
C 14.5517 5.4839 18.747
O 15.8865 5.96089 18.9356
H 16.292 5.99511 18.0827
C 4.29629 10.4632 8.03821
O 5.26299 10.0225 7.08102
H 4.92652 9.27125 6.61686
C 25.6559 17.164 7.94249
O 26.2257 15.9825 7.37308
H 25.5814 15.3043 7.50703
C 2.1513 1.63517 8.17622
O 3.39787 0.936353 8.22723
H 3.91018 1.27141 8.94716
C 17.925 9.39335 8.3623
O 17.99 10.7116 7.81205
H 17.6968 11.3123 8.48006
C 2.57561 4.14948 3.47668
O 1.95668 2.90417 3.80991
H 1.23544 3.1226 4.38011
C 28.3877 6.13442 28.8203
O 28.1239 7.50228 28.4973
H 28.2042 7.66237 27.5694
C 14.4716 7.23047 2.20278
O 14.9564 6.07487 2.89159
H 15.3709 5.40197 2.37344
C 23.1236 12.4885 11.8035
O 24.0195 11.8653 12.7275
H 23.6875 10.984 12.8057
C 12.0424 10.7902 1.81836
O 12.3841 12.0613 2.37739
H 12.2093 11.9709 3.30168
C 3.01104 4.93229 6.80595
O 4.178 5.47026 7.43341
H 4.10078 5.31529 8.36241
C 1.20941 28.6504 2.61168
O 2.01421 28.9512 3.7548
H 1.90853 1.11775 3.94752
C 23.6718 11.5232 24.1986
O 24.5402 12.2986 25.0289
H 24.1606 13.163 25.0703
C 15.1206 28.4812 21.8582
O 16.1092 29.2636 22.533
H 15.9026 29.1967 23.4527
C 5.35436 11.1352 17.0449
O 6.03248 10.8442 15.82
H 6.3071 9.94231 15.8843
C 4.43103 14.3962 1.76543
O 5.33786 14.2941 2.86639
H 5.167 13.5581 3.43394
C 11.1711 3.56837 26.5538
O 11.7524 2.65249 25.6221
H 11.0548 2.42727 25.0256
C 0.775965 10.4398 20.3742
O 1.90492 10.0316 19.5971
H 1.54343 9.6834 18.7964
C 14.1257 16.4235 7.72745
O 14.3173 15.0184 7.91094
H 15.2296 14.9212 7.68444
C 3.66232 20.4843 5.12702
O 2.36962 20.6067 5.72605
H 1.84624 19.8457 5.52628
C 25.2946 6.68309 2.60218
O 24.1693 7.32755 3.20496
H 24.2713 8.20816 2.87762
C 18.5993 12.9607 14.4021
O 18.2713 11.6311 14.8139
H 18.6124 11.477 15.6816
C 5.67686 23.2682 16.1675
O 4.30284 22.9836 15.8918
H 4.12375 23.3675 15.0471
C 11.0186 16.6852 14.62
O 11.6853 17.2593 15.7473
H 12.3272 17.8717 15.4217
C 7.88229 16.8437 12.0842
O 6.61466 16.2497 11.7924
H 6.10927 16.5308 12.5398
C 1.85647 16.7956 21.2665
O 1.50404 16.4653 22.6124
H 0.957315 15.6947 22.5958
C 24.7514 15.5403 26.4316
O 23.9494 14.9166 25.4253
H 23.6945 15.726 25.0095
C 5.83059 17.5365 7.54724
O 4.73556 17.651 6.63471
H 5.00188 17.1624 5.87091
C 2.73672 4.9989 24.0034
O 2.00361 5.85014 24.8882
H 1.24488 5.30263 25.0209
C 6.55643 18.4857 26.6494
O 7.71799 19.3192 26.6178
H 7.87759 19.5171 27.5279
C 16.2832 9.38097 16.0308
O 16.0288 8.50509 14.9294
H 15.4237 8.89748 14.3187
C 20.9835 26.8584 12.9021
O 21.3289 25.5414 13.3393
H 20.5321 25.1171 13.6188
C 5.19571 1.53284 4.65378
O 4.72012 28.9412 4.54448
H 3.92681 28.9854 4.03288
C 15.9442 15.9239 26.4111
O 15.4557 16.2596 25.1098
H 15.5948 17.1853 24.9802
C 13.8126 8.90586 12.204
O 14.6737 10.0349 12.3734
H 14.1929 10.698 12.8448
C 3.11743 9.29007 25.3327
O 2.18762 8.44021 24.6559
H 2.3968 7.53252 24.8151
C 15.9801 28.5948 29.0816
O 16.6629 28.5261 27.827
H 17.5946 28.4267 27.9496
C 20.2783 7.54847 15.8873
O 21.0403 7.85602 14.717
H 21.3905 7.03725 14.4007
C 20.5899 0.808223 15.7236
O 19.3152 1.42455 15.5233
H 19.0494 1.24876 14.6336
C 14.2527 29.4099 25.7331
O 15.5834 29.3476 25.2132
H 16.0698 28.9988 25.9445
C 2.80799 2.605 17.8581
O 3.80119 3.0253 18.7972
H 3.66452 3.95981 18.8292
C 18.1414 18.1302 9.58288
O 19.1527 17.1204 9.63249
H 19.8511 17.4697 9.10031
C 3.24322 18.8313 24.9029
O 2.87047 18.246 26.1532
H 2.6323 17.3465 25.9886
C 4.69536 26.3143 27.7837
O 3.35635 26.5114 27.322
H 3.39896 26.1774 26.4391
C 6.6927 14.961 27.8182
O 7.41296 15.7721 28.7499
H 6.75493 16.2684 29.2122
C 1.30266 18.0643 15.9894
O 1.72027 19.2397 16.6886
H 2.59551 19.5176 16.4655
C 25.5985 27.0861 23.8031
O 24.7083 28.1953 23.9515
H 25.0591 28.8922 23.4183
C 15.0304 24.6935 23.883
O 15.0599 25.8767 24.6855
H 15.7646 25.8038 25.3109
C 10.7671 20.1758 15.9803
O 11.1935 21.0342 17.0415
H 10.3886 21.2473 17.4883
C 20.1305 20.7064 16.6494
O 20.034 20.5474 18.0672
H 19.2755 19.9868 18.1254
C 5.61058 27.1101 18.1574
O 6.92288 27.0699 18.7241
H 7.35246 27.896 18.5626
C 8.31312 26.2294 21.9689
O 8.76566 26.519 20.6437
H 8.07308 26.4595 20.0035
C 23.6282 22.5481 23.0055
O 23.3056 23.8968 23.3545
H 23.4043 24.0597 24.2801
C 3.84715 1.27987 24.3844
O 3.04188 1.86256 23.3563
H 3.39279 1.5703 22.529
C 18.3118 26.4812 23.0001
O 19.5809 27.0987 23.2304
H 20.2721 26.5488 22.8947
C 18.9442 16.7447 21.2462
O 17.6546 16.602 21.8475
H 17.1833 17.4119 21.7258
C 10.4519 27.2409 16.9122
O 10.4754 28.0886 15.7608
H 9.70738 27.8412 15.2689
C 9.76265 13.2766 17.1334
O 10.5273 12.1458 17.5593
H 9.91906 11.4657 17.8054
C 26.576 9.1489 18.8455
O 26.2695 10.3925 19.4814
H 26.267 10.2837 20.4201
C 20.7703 8.02225 19.6252
O 20.2743 9.23734 19.0573
H 19.4828 9.35066 19.5611
C 28.5095 18.6637 26.7521
O 27.7959 19.1352 25.6061
H 27.5632 18.3599 25.1186
C 22.7986 10.5609 28.2517
O 22.192 10.1498 0.727172
H 22.893 10.2835 1.34669
C 3.84573 12.0184 21.3593
O 4.09225 10.8946 20.5101
H 3.23446 10.5985 20.2464
C 23.0157 18.0531 11.2544
O 24.0635 18.5893 10.4423
H 23.5799 18.9522 9.71596
C 19.895 23.7612 24.9552
O 19.4335 22.492 25.4254
H 18.7184 22.5911 26.0352
C 9.29392 11.6687 21.1831
O 10.5569 11.0162 21.028
H 10.6102 10.4943 20.242
C 24.3298 8.21308 12.7977
O 23.4159 9.15461 12.229
H 22.71 8.70548 11.7897
C 8.06669 16.9675 16.8673
O 7.3736 17.9988 17.575
H 6.52881 17.683 17.8572
C 1.80771 14.4546 13.8835
O 2.66843 14.2886 15.0133
H 2.07592 14.2384 15.7478
C 3.52149 14.1223 6.45992
O 2.19859 14.0109 6.99136
H 1.99515 14.5833 7.7152
C 26.3695 7.20511 15.7779
O 25.1512 6.69832 16.3291
H 24.4714 7.3546 16.3408
C 8.83619 8.60553 17.7718
O 8.94373 9.62954 18.7641
H 8.23955 9.39567 19.3493
C 9.2947 24.0134 26.7148
O 8.84043 24.0903 28.0685
H 8.3813 23.2668 28.132
C 8.3333 25.9493 13.8873
O 8.55548 27.3614 13.8504
H 8.54723 27.582 12.9316
C 12.6127 12.1905 24.1615
O 12.5115 12.947 22.9522
H 12.0983 13.777 23.1351
C 6.89473 8.68171 27.9495
O 5.64515 9.29945 28.2687
H 5.04833 8.56832 28.3163
C 7.83158 6.60053 9.67784
O 9.24641 6.74435 9.52793
H 9.52489 7.56911 9.89567
C 17.8164 22.6066 10.7852
O 16.6133 21.8601 10.9856
H 15.8442 22.3356 10.7113
C 20.9574 15.6819 13.3315
O 20.7148 16.6322 14.3721
H 19.8898 17.0722 14.2345
C 17.2189 1.88227 18.5296
O 17.8629 0.901798 17.7117
H 18.3674 1.36712 17.0621
C 4.265 26.1144 22.1092
O 4.22919 26.8948 23.3069
H 3.74362 26.3369 23.8951
C 10.0264 9.76949 12.1859
O 9.55537 9.15709 10.9826
H 9.15781 9.84472 10.4706
C 15.0869 14.9652 15.2311
O 15.0379 14.2197 14.0118
H 15.7551 14.4984 13.463
C 11.2494 27.0216 25.207
O 12.0823 26.2199 24.3653
H 12.9813 26.4593 24.5313
C 1.01565 10.9769 12.7926
O 28.8366 10.1359 13.478
H 29.2818 9.30419 13.4233
C 2.22118 10.5722 1.04674
O 1.59667 10.0867 28.608
H 0.695405 9.88524 28.8084
C 8.5397 22.7913 18.709
O 8.80414 21.5619 18.0282
H 8.67142 20.8603 18.6471
C 1.59981 17.3661 4.71784
O 0.969642 18.6498 4.70648
H 0.73953 18.8475 3.81151
C 29.0862 28.1437 27.5653
O 1.7024 28.5579 27.5613
H 2.26592 27.8121 27.4222
C 3.55802 5.70358 15.3645
O 2.17613 5.91033 15.0603
H 1.7765 5.05459 15.0924
C 21.6725 6.92085 9.94465
O 21.3704 7.47895 11.2261
H 20.7593 8.19685 11.1617
C 20.7265 16.8474 26.1603
O 20.4359 16.0306 25.0231
H 21.2199 16.1323 24.5053
C 19.7068 26.7036 28.5619
O 19.2627 27.932 27.9799
H 19.6221 27.9243 27.106
C 2.81825 6.94707 20.4065
O 3.12121 6.09552 19.2984
H 2.26673 5.76065 19.0731
C 13.0445 21.9461 21.751
O 12.0692 21.6961 22.7665
H 11.6412 22.5307 22.8823
C 15.6981 11.4772 1.68601
O 14.8499 12.5235 1.20586
H 14.0111 12.3075 1.58377
C 19.0138 5.97895 2.55001
O 19.6986 5.30867 1.48851
H 19.0344 4.78543 1.06643
C 8.77333 5.33079 19.6985
O 9.92546 5.66867 20.4752
H 9.61744 6.43145 20.9403
C 12.6985 25.7991 3.36601
O 13.0007 24.4371 3.0522
H 12.2369 24.1466 2.57744
C 15.4339 15.7591 2.88397
O 16.8324 16.0027 3.05573
H 17.0207 15.8076 3.961
C 7.18986 28.9024 26.2091
O 8.43153 0.81102 26.4661
H 8.43721 1.18355 27.3345
C 1.33297 5.60835 9.90447
O 2.54813 6.33119 9.69054
H 2.4996 7.23915 9.94801
C 16.1208 2.96637 3.96516
O 17.523 3.22268 3.85102
H 17.6997 3.24267 2.9229
C 5.74026 17.3544 21.9629
O 6.03306 16.5663 20.8062
H 5.41346 16.8864 20.1685
C 28.0943 2.74686 2.12688
O 27.4752 2.24166 3.31279
H 26.5989 2.08714 2.9945
C 6.60891 25.4757 8.30244
O 5.71099 26.3652 8.97129
H 5.20756 26.7732 8.28344
C 25.8451 4.79066 18.9475
O 26.0461 4.06181 17.7338
H 25.8023 4.61366 17.0064
C 8.58986 19.2258 9.40542
O 7.4044 20.0116 9.25627
H 7.59865 20.663 8.5998
C 20.893 17.0301 4.16904
O 21.911 16.1551 4.66189
H 22.603 16.0297 4.03064
C 11.5497 24.641 19.8307
O 10.6569 24.6555 20.9477
H 10.1172 25.4246 20.8469
C 4.95058 23.1185 25.7748
O 4.47693 22.7108 24.4886
H 3.57898 22.4995 24.6936
C 27.998 2.48541 6.34979
O 28.6496 3.17859 5.28216
H 28.1341 2.88845 4.54527
C 15.6249 22.8515 3.85361
O 15.5652 23.7169 2.71675
H 14.665 23.9934 2.79577
C 6.24179 7.07593 24.1234
O 6.82887 7.9834 23.1871
H 6.21847 8.31593 22.5469
C 26.5747 17.4202 23.0713
O 27.7429 17.2274 23.8732
H 28.5375 17.465 23.4204
C 0.92615 15.0803 17.9659
O 0.712754 14.1714 16.8827
H 28.5387 14.204 16.6999
C 28.7731 22.0873 14.1141
O 1.28349 21.4169 14.0915
H 1.69798 21.6068 14.9192
C 11.5131 28.0472 29.2213
O 11.5331 26.6545 28.8976
H 10.7179 26.2988 29.217
C 14.0878 8.58536 8.52808
O 14.3291 7.66081 7.46418
H 14.7971 8.15927 6.81187
C 2.38615 25.0698 13.905
O 3.64182 24.4305 13.6611
H 4.0256 24.8322 12.8967
C 5.34257 1.26044 21.1068
O 3.94383 1.46474 20.8908
H 3.76183 1.98712 20.1246
C 9.38588 1.408 19.0162
O 8.12367 0.745493 18.9031
H 7.5849 1.3235 18.3847
C 16.5354 11.1687 25.0654
O 17.1907 10.034 25.638
H 17.5992 10.4641 26.3737
C 22.9323 20.0252 5.285
O 22.4101 19.3553 6.43539
H 21.4975 19.5996 6.45592
C 8.7124 13.2556 12.3401
O 9.40076 13.1523 13.5893
H 10.3213 13.2826 13.4202
C 23.9223 2.15588 6.68295
O 24.7506 2.96346 5.84231
H 24.4629 2.8027 4.95663
C 11.738 15.143 3.2459
O 10.9338 16.0637 2.50397
H 11.3699 15.9878 1.66903
C 2.52749 22.7787 9.968
O 1.43467 21.9657 10.4034
H 1.75065 21.2787 10.9702
C 9.4142 2.45192 15.4998
O 8.94355 3.32626 16.5289
H 8.2093 2.91466 16.9584
C 28.936 13.0142 3.93114
O 28.4699 14.331 3.62522
H 27.654 14.1339 3.19106
C 2.98428 6.75913 28.39
O 4.33729 6.72684 28.8518
H 4.91221 6.29112 28.2414
C 10.4671 28.9335 4.68193
O 11.1349 29.0287 5.94286
H 11.3861 1.17286 6.10394
C 8.04367 3.13615 11.4698
O 8.53353 4.08504 12.4209
H 9.43401 4.14135 12.1398
C 13.4347 3.08747 15.3283
O 12.3852 3.29601 14.3795
H 11.8485 3.93075 14.8291
C 8.06238 7.36578 13.8682
O 9.17827 6.48482 13.7146
H 8.87461 5.80448 13.1332
C 24.0107 22.2585 18.2986
O 23.6523 23.1289 19.3752
H 22.782 22.8013 19.5433
C 16.0601 22.6172 14.8759
O 15.6118 23.1305 13.6187
H 16.2014 23.7909 13.2883
C 16.6239 12.9062 18.4253
O 17.8727 12.9285 19.1218
H 17.6457 12.8722 20.0374
C 12.909 2.84662 20.167
O 13.3841 3.22397 21.4619
H 12.7686 3.86897 21.7752
C 26.373 13.314 29.2628
O 25.9782 13.9677 1.71926
H 25.4008 13.429 2.23837
C 0.876823 28.3639 19.123
O 28.6691 28.6499 18.1027
H 28.1831 27.8562 17.9385
C 12.1798 23.4085 13.9515
O 12.9617 22.2813 13.548
H 13.8365 22.5993 13.3848
C 16.7682 5.31696 7.64078
O 16.1925 5.90008 8.81273
H 15.3982 6.39062 8.66619
C 10.3454 20.1498 6.07975
O 11.4168 19.4602 6.7291
H 12.0692 19.3767 6.05055
C 11.8654 20.1495 27.1768
O 12.9332 20.5572 28.0362
H 13.0467 19.8416 28.6429
C 20.2988 9.12632 23.4013
O 20.2033 7.84131 24.0214
H 20.6649 7.74162 24.84
C 12.5914 8.80046 19.2254
O 12.4759 8.38994 20.5904
H 13.2723 8.63918 21.0338
C 22.999 7.08965 25.8157
O 21.6368 7.25066 26.2198
H 21.62 7.10848 27.1539
C 20.5446 20.4775 11.8783
O 20.4078 19.9055 13.1818
H 21.1542 20.2161 13.6711
C 1.71656 23.3479 17.7005
O 29.0622 23.0918 17.7097
H 29.1054 22.1899 17.9884
C 5.29379 27.4533 14.5334
O 6.21827 28.5421 14.464
H 7.08877 28.2036 14.3204
C 19.8705 3.62418 8.53684
O 20.7436 2.68424 7.90505
H 20.4565 2.63006 7.00632
C 26.9442 13.0089 22.3338
O 27.6624 12.8323 23.5577
H 27.5249 11.9433 23.8473
C 6.9527 1.21353 7.93277
O 7.05221 2.59778 7.58802
H 7.84011 2.66719 7.0709
C 18.836 21.1207 6.38003
O 19.9013 20.375 6.97497
H 20.4102 21.1155 7.26769
C 23.1084 23.3857 29.4151
O 23.3762 24.4839 1.53845
H 24.1709 24.2535 1.99505
C 28.4207 13.2668 9.4522
O 29.0534 11.9844 9.45594
H 29.3473 11.9571 8.55824
C 6.40535 13.5658 19.198
O 7.37637 14.4976 19.6816
H 6.98331 15.1907 20.1896
C 24.1164 12.9565 4.512
O 24.925 12.2293 3.58342
H 25.6429 11.9455 4.12847
C 17.4846 6.91171 11.5457
O 17.795 5.6421 10.9655
H 17.3774 5.66503 10.1181
C 1.50312 20.7163 1.17413
O 2.73034 21.2093 29.3828
H 2.44072 21.9836 28.925
C 6.28832 22.3134 7.07321
O 7.51851 21.6408 6.79182
H 7.38952 21.3622 5.8981
C 23.8914 19.1344 1.13078
O 24.2745 17.9263 1.79316
H 24.9191 18.139 2.45068
C 2.96162 18.9519 9.01006
O 2.4713 17.9145 8.15669
H 3.02419 17.9795 7.39306
C 7.48252 7.97952 3.02478
O 7.19576 7.74011 4.40513
H 6.969 6.82972 4.51825
C 25.9766 10.0579 6.06926
O 27.0564 10.7285 5.41415
H 27.7631 10.7785 6.03956
C 18.2265 7.77348 27.8736
O 19.1837 8.83375 27.8064
H 19.4927 8.82544 26.9134
C 3.96394 10.972 4.23224
O 5.02071 11.8614 3.86181
H 5.42411 11.4909 3.09172
C 12.9563 15.1095 28.2232
O 11.9833 15.9614 28.8334
H 11.1437 15.9672 28.3997
C 15 19.2667 11.7769
O 16.3031 19.5519 12.2921
H 16.5453 20.4331 12.0515
C 9.4602 25.2973 4.45229
O 8.77615 25.3363 5.70746
H 8.07975 25.9669 5.60586
C 11.5323 12.9463 5.84517
O 12.1863 11.9796 5.01905
H 13.1215 12.0185 5.14927
C 21.7611 10.2648 8.24991
O 21.1661 10.9261 9.36955
H 20.6023 10.3227 9.82898
C 18.7764 24.778 7.22562
O 19.8911 24.6212 6.34369
H 20.337 25.4464 6.22877
C 26.2858 27.8883 4.69606
O 25.5527 27.227 3.66159
H 24.675 27.5577 3.7768
C 15.8747 3.1488 11.9377
O 15.2414 1.86676 11.9505
H 14.3646 2.05664 12.2477
C 20.0086 4.42558 19.4801
O 21.0803 4.39842 18.5336
H 21.8206 3.9911 18.9567
C 22.0344 13.956 28.2383
O 20.625 14.1635 28.3627
H 20.1809 13.4882 27.8731
C 14.582 19.5496 15.4252
O 13.5205 19.5169 14.4675
H 13.4149 20.4176 14.2016
C 12.8234 12.6024 9.75338
O 13.5383 12.637 8.5154
H 13.9154 13.5034 8.5007
C 23.8472 6.41146 21.4525
O 25.0734 7.12026 21.6497
H 25.4078 6.82844 22.484
C 7.43318 19.8576 3.66182
O 7.15544 21.2477 3.85025
H 6.74182 21.5307 3.0491
C 4.83865 23.1754 2.49233
O 5.40052 22.0086 1.88602
H 4.59201 21.5873 1.63726
C 6.8998 4.04676 26.6474
O 6.42139 5.25372 27.2468
H 6.96152 5.31318 28.02
C 11.7255 6.67884 16.063
O 11.0842 5.59739 15.3817
H 10.5807 5.88571 14.6358
C 16.5205 9.27229 4.94526
O 15.232 9.13049 5.54917
H 14.8954 10.0049 5.67234
C 7.04326 11.7217 25.6898
O 5.859 11.5704 26.4769
H 5.91979 10.7063 26.8547
C 22.2153 2.44618 23.037
O 22.3799 3.80406 23.4541
H 21.8643 4.36254 22.8926
C 25.5644 28.3597 8.53276
O 25.025 27.4581 7.56278
H 25.759 26.9146 7.32017
C 16.2708 28.7779 6.07173
O 17.6967 28.869 6.01361
H 17.9771 28.3536 5.27278
C 3.99217 1.79889 12.061
O 4.4581 1.59723 10.7242
H 5.04165 0.863242 10.8414
C 10.5642 22.2324 1.93297
O 10.8412 23.5813 1.5475
H 10.2018 23.7458 0.871435
C 11.2448 5.21406 23.445
O 11.9854 5.39466 22.2352
H 11.2615 5.4542 21.6306
C 1.51858 27.7941 11.1192
O 1.71445 26.3778 11.099
H 2.63867 26.2414 10.9567
C 28.2328 27.551 15.1641
O 27.0723 26.9419 15.7362
H 26.4897 26.7276 15.0237
C 28.5148 25.6239 7.9839
O 27.1786 25.6508 7.47526
H 26.8558 24.8029 7.7399
C 19.6217 13.4426 2.86685
O 19.2915 12.1561 3.39672
H 19.2154 11.6906 2.57784
C 4.25942 15.111 9.77037
O 5.67778 14.9303 9.74747
H 6.00764 15.2969 10.5536
C 14.1312 19.547 3.75735
O 13.5717 19.2859 5.04718
H 14.1937 19.6783 5.64058
C 9.29895 16.5248 7.27392
O 9.89273 15.4399 7.99169
H 9.18006 14.8195 8.00726
C 14.2191 27.7525 18.1129
O 15.0105 26.9499 17.2328
H 14.8809 26.0384 17.446
C 18.2165 16.8307 6.29514
O 17.3925 15.8588 5.64598
H 17.4439 15.0271 6.09162
C 9.91895 10.784 8.29907
O 9.58466 11.8059 9.24194
H 9.03839 12.4293 8.78816
C 27.9046 3.00002 26.0521
O 29.1904 3.57448 25.8041
H 1.09307 3.07869 26.271
C 9.57651 16.2238 26.0814
O 9.76817 15.7754 27.4257
H 8.99134 15.7491 27.9631
C 16.8391 19.186 28.6124
O 16.1056 18.1131 29.2089
H 16.6745 17.3748 29.3647
C 12.851 11.9624 15.0547
O 13.9815 11.8218 14.1904
H 14.3458 12.6936 14.1724
C 21.6345 7.45626 5.66691
O 22.91 6.80976 5.67029
H 23.305 6.9276 4.81993
C 21.8331 13.5788 16.1164
O 22.1501 14.3444 17.2818
H 21.6249 14.0928 18.026
C 7.08614 1.6027 1.02274
O 8.08647 2.22452 28.9643
H 7.96969 3.15508 29.0803
C 20.7364 13.5684 6.71272
O 21.6525 14.6639 6.78827
H 21.5957 15.099 5.95131
C 28.5229 2.22146 11.8473
O 27.8563 1.79107 13.0369
H 27.52 2.51369 13.5447
C 18.5602 16.2642 16.9402
O 17.5653 17.0669 16.2992
H 17.8674 17.226 15.418
C 24.7292 21.2633 26.3879
O 23.5903 22.1276 26.4192
H 22.8408 21.6123 26.1627
C 23.8053 4.57266 28.1283
O 24.9391 3.83072 27.6713
H 24.8889 2.98443 28.0888
C 27.4508 6.37813 6.50647
O 26.7746 7.15082 7.50177
H 25.9801 6.66841 7.67242
C 23.6576 26.0266 15.6825
O 24.7798 25.2685 15.2232
H 24.8411 25.6637 14.367
C 27.4148 20.7452 6.96943
O 27.2927 20.0428 5.72981
H 27.9667 19.3888 5.83445
C 20.391 3.87593 26.456
O 19.87 2.59155 26.8079
H 18.9576 2.73701 27.0062
C 21.8344 26.4687 19.0546
O 23.1348 26.5954 19.6358
H 23.2297 25.9157 20.2854
C 6.04545 10.2651 11.5066
O 4.68695 10.6961 11.6235
H 4.67191 11.49 12.1358
C 26.6801 9.48048 10.475
O 27.4155 8.31023 10.1081
H 27.3031 8.19256 9.17721
C 25.493 18.6856 15.4075
O 24.2372 18.7945 16.0828
H 23.7775 17.9691 16.1044
C 0.790289 27.9449 22.9637
O 0.721745 26.5355 22.7316
H 28.7751 26.3955 22.1114
C 16.9131 5.25328 15.2879
O 16.7917 6.03102 16.4817
H 16.4368 6.82371 16.1092
C 8.67565 13.0551 1.19587
O 8.30195 11.6947 0.961995
H 8.92658 11.1774 29.2295
C 12.0828 16.0375 10.566
O 11.1995 16.8807 9.82185
H 10.8898 16.4219 9.05595
C 18.6794 22.877 1.92504
O 17.5189 23.0844 1.11577
H 16.8968 23.4391 1.73248
C 20.9153 20.5727 27.8116
O 21.191 20.8088 26.4284
H 20.5174 21.4116 26.1531
C 3.37837 2.62874 28.3495
O 2.13749 2.59113 27.6398
H 1.88679 1.69214 27.4915
C 12.1002 5.64079 10.8336
O 10.7747 5.37291 11.2984
H 10.1693 5.73928 10.6721
1500
 Atoms. Timestep: 100000
O 11.2161 14.7464 24.4063
H 11.3656 13.8459 23.998
H 10.8965 14.6368 25.3475
O 11.8127 11.271 22.199
H 12.1673 11.972 21.5803
H 12.3057 11.3132 23.068
O 11.8207 17.8426 26.206
H 12.1617 18.7803 26.2733
H 11.3205 17.6092 27.0398
O 10.7512 6.21898 6.17137
H 10.4571 6.68803 5.33859
H 11.3501 6.82115 6.69931
O 17.9706 27.1076 24.3129
H 17.3746 26.306 24.2651
H 18.7271 26.9994 23.668
O 16.868 26.0905 15.5097
H 16.6537 26.1743 16.4829
H 17.7493 25.6306 15.4009
O 5.35661 13.4419 13.3012
H 6.06832 14.1417 13.2395
H 4.67653 13.7172 13.9807
O 25.612 9.83836 25.6867
H 26.0655 9.40947 24.9055
H 24.7752 9.33566 25.9036
O 3.36618 21.7398 18.8736
H 3.67222 21.1785 18.1046
H 4.14034 22.2583 19.2366
O 17.6762 0.71301 25.4003
H 16.6935 0.835966 25.2614
H 17.9438 28.5511 25.0968
O 5.99071 15.7471 15.9165
H 6.85226 15.5431 16.3814
H 5.43286 16.3426 16.4947
O 26.3422 23.5328 4.61092
H 27.1581 23.2274 4.12
H 26.5135 23.4993 5.59555
O 18.0719 29.3586 12.5724
H 17.576 28.692 12.016
H 17.4186 1.1947 13.0486
O 11.7658 7.69627 22.3052
H 11.8361 8.54443 21.7802
H 12.2758 6.97288 21.8398
O 9.36074 11.2717 22.8836
H 10.2955 11.4042 22.554
H 9.35019 10.5485 23.5742
O 8.68515 21.9894 9.55814
H 8.6092 21.743 8.59195
H 8.32843 21.2439 10.1212
O 7.73017 6.29187 25.7326
H 7.24745 6.83451 25.0452
H 8.71452 6.33773 25.5625
O 15.5708 19.5416 18.512
H 15.9906 20.4485 18.4765
H 15.8964 19.0551 19.3228
O 24.4163 5.00839 8.70008
H 24.5126 5.00213 9.69541
H 23.4536 5.13102 8.45911
O 15.3342 16.7771 8.30937
H 16.0796 17.2773 8.74999
H 14.458 17.166 8.59386
O 7.62679 12.3212 15.4745
H 6.73364 12.4332 15.0389
H 7.92053 13.195 15.8621
O 26.0604 24.8089 15.0173
H 26.9388 24.5373 15.4106
H 25.8669 25.7598 15.2588
O 14.9951 13.4444 19.4693
H 15.5493 13.4743 20.3011
H 14.0258 13.431 19.715
O 20.7422 11.9136 10.5399
H 19.8081 11.8986 10.1831
H 20.7311 11.6824 11.5127
O 23.3027 1.66117 23.4655
H 22.6096 2.11714 24.0237
H 23.8829 1.0952 24.0512
O 22.549 21.7567 11.679
H 22.4181 22.6204 12.1658
H 22.6028 21.9329 10.6961
O 6.12789 7.10568 5.16015
H 6.7244 6.77802 5.89282
H 6.17847 6.47799 4.38333
O 7.33559 5.0117 17.6472
H 8.2697 5.36864 17.6537
H 6.97185 5.04687 16.7164
O 4.1463 26.2756 7.68932
H 3.66819 25.7399 6.99326
H 3.78691 27.2087 7.69696
O 12.2335 15.8942 20.7941
H 11.3143 15.77 21.168
H 12.2423 16.6899 20.1885
O 22.6699 8.75883 23.517
H 21.9643 9.06246 22.8767
H 23.5726 8.97669 23.146
O 0.942297 23.2496 20.6009
H 1.6112 22.6961 20.1047
H 28.8135 23.2087 20.1302
O 21.7929 12.9003 17.8514
H 22.0053 12.4142 18.6991
H 21.1162 13.6129 18.0365
O 10.7309 9.44428 28.1805
H 11.0497 8.80903 28.8839
H 11.414 9.5061 27.4529
O 27.8207 14.7296 23.1858
H 27.1364 15.3696 22.8364
H 27.7228 13.85 22.7204
O 20.2316 14.5406 26.0387
H 21.1664 14.89 25.9745
H 19.6196 15.1264 25.5075
O 25.5944 24.0084 7.42665
H 26.0178 24.6358 8.08023
H 25.7036 23.068 7.74867
O 22.5123 23.755 6.65766
H 22.1672 24.6879 6.55484
H 23.421 23.6885 6.24562
O 21.975 25.0439 27.1466
H 21.0251 25.2714 26.9322
H 22.2623 25.5468 27.9619
O 4.85614 11.4916 5.17199
H 4.03072 11.2582 4.65798
H 5.61757 10.9265 4.8543
O 28.6926 10.7135 16.0481
H 28.8946 10.8259 15.0752
H 29.1933 9.92418 16.4035
O 14.2814 3.2533 2.58846
H 14.3146 3.39923 1.59972
H 15.1653 3.49228 2.99049
O 10.2372 7.25948 24.5534
H 10.5205 7.31728 23.5961
H 10.1705 8.18038 24.9375
O 19.682 2.26804 6.02413
H 19.9311 1.52329 5.40505
H 18.8352 2.03485 6.50227
O 2.46471 26.184 28.9365
H 1.46673 26.226 28.8889
H 2.83396 25.9918 28.0273
O 26.8011 27.6712 1.84353
H 26.7476 27.1789 2.7123
H 26.1366 27.2882 1.20187
O 11.2978 19.1721 8.03888
H 10.4103 18.9668 8.45136
H 11.2278 20.0097 7.49705
O 1.04125 8.38717 17.0167
H 29.2489 7.79091 17.6062
H 1.79644 7.86468 16.6208
O 1.29396 19.9111 10.3054
H 29.3797 20.5515 10.6866
H 0.887267 18.9991 10.2519
O 25.1056 26.4716 28.6885
H 25.3033 25.9216 27.8771
H 24.1296 26.4161 28.8991
O 25.0841 24.09 12.692
H 25.4211 24.6057 13.4797
H 24.1176 23.871 12.8257
O 5.82408 5.37272 3.10721
H 4.94491 4.94648 3.32023
H 5.74426 5.89506 2.25822
O 25.839 21.1621 17.9263
H 26.0776 20.1964 17.8243
H 24.8738 21.2928 17.6995
O 19.7497 13.1964 20.2337
H 19.5348 12.992 21.1888
H 18.9225 13.1056 19.6792
O 16.9742 23.0034 21.5364
H 16.2145 23.2925 22.1189
H 17.6111 23.7651 21.4168
O 28.5728 1.01271 11.6902
H 28.8444 0.88065 10.7369
H 28.7094 1.96969 11.9462
O 23.6266 20.8911 21.7316
H 23.0679 20.4501 22.4341
H 24.1523 20.1972 21.2396
O 22.7021 6.18313 21.6994
H 23.3927 6.35809 22.4012
H 22.4795 5.20831 21.6865
O 11.5751 5.02988 26.0046
H 11.0443 5.6877 25.4703
H 11.276 4.10176 25.7829
O 13.9118 6.33185 8.92915
H 13.61 7.13764 8.41962
H 13.1303 5.73035 9.09494
O 11.7924 17.998 18.7984
H 12.4587 18.4431 19.3967
H 12.1231 18.0224 17.855
O 6.44068 4.98683 20.1601
H 5.47969 4.73227 20.2682
H 6.66893 5.02122 19.1871
O 18.943 3.12426 25.2564
H 18.4135 2.28905 25.405
H 18.3641 3.9211 25.4295
O 2.86491 28.6237 6.5647
H 2.37719 28.889 5.73301
H 3.23881 0.686711 7.0064
O 22.3416 2.02066 3.01157
H 22.9037 1.21282 2.83424
H 22.2397 2.14568 3.99848
O 12.5798 2.15864 12.8217
H 12.7075 2.70585 13.6489
H 12.6068 1.18716 13.0572
O 5.16069 22.769 20.639
H 5.87341 22.2446 21.105
H 5.58373 23.475 20.0711
O 5.39042 17.3193 18.4208
H 6.01229 17.9004 18.9458
H 4.49409 17.7587 18.3613
O 22.2759 16.1626 3.00417
H 22.8167 15.439 3.43303
H 22.1437 16.9102 3.65504
O 25.2556 24.2622 26.9415
H 26.0643 23.9911 27.4635
H 24.466 23.7326 27.2513
O 27.748 15.3633 6.19544
H 28.2638 16.0576 5.69358
H 27.005 15.8012 6.70168
O 6.05925 16.951 3.85504
H 6.45453 17.5321 3.14368
H 6.79199 16.4784 4.34468
O 3.20282 23.2907 12.728
H 3.71313 22.6238 13.271
H 3.09354 22.9474 11.7952
O 2.69913 11.7686 26.1771
H 3.21165 11.9357 27.0193
H 3.24759 11.205 25.5594
O 27.9816 7.12067 1.63169
H 28.8653 6.74532 1.35223
H 27.9254 8.08065 1.35732
O 15.8077 24.6421 11.0167
H 16.0344 25.6102 11.1236
H 14.8172 24.5223 11.0842
O 21.0508 4.6167 5.61141
H 21.2047 4.67655 4.62513
H 20.5236 3.79222 5.8171
O 16.0691 27.8173 11.5014
H 15.9567 28.0453 12.4685
H 15.1975 27.9395 11.0267
O 8.57653 3.03838 7.18225
H 8.02081 3.50351 6.49317
H 9.51233 2.93882 6.84407
O 21.4517 7.00731 14.5735
H 21.7183 7.86183 14.1277
H 21.903 6.94081 15.4635
O 14.9341 11.6609 6.09842
H 15.8799 11.9762 6.02026
H 14.3227 12.3349 5.68371
O 4.83132 9.34694 1.5632
H 5.0992 8.46784 1.16898
H 3.83694 9.44306 1.51866
O 20.0104 29.2771 3.85569
H 19.24 29.2388 3.21926
H 20.8369 0.79623 3.36265
O 6.46639 2.22966 18.1523
H 5.73326 2.08771 17.4872
H 6.62774 3.20994 18.2664
O 15.7272 16.5114 20.7222
H 16.5687 17.0474 20.6545
H 15.5884 16.0002 19.8741
O 23.3415 21.2597 16.1223
H 23.6355 20.7984 15.2851
H 23.3819 22.25 15.9889
O 8.38456 9.94846 20.6246
H 8.03831 9.03043 20.8178
H 8.38031 10.49 21.4653
O 4.94013 4.34361 10.0246
H 5.93189 4.47166 10.0228
H 4.72087 3.43381 9.67222
O 16.6702 13.5823 21.7875
H 17.4387 13.9782 22.2902
H 16.9165 12.6671 21.4687
O 10.8753 23.9597 8.91396
H 9.93376 24.2851 8.82656
H 10.897 23.1588 9.51241
O 28.398 5.04765 5.50681
H 27.7362 5.4678 4.88594
H 27.95 4.83028 6.37405
O 26.4426 13.8568 3.97888
H 26.9877 14.3377 4.66555
H 26.9439 13.8303 3.11402
O 22.1837 17.0807 23.466
H 22.0785 18.0723 23.5407
H 22.1913 16.8181 22.5011
O 6.46083 21.1936 17.8133
H 6.71825 20.5109 18.4972
H 5.6359 20.8919 17.3353
O 2.17514 9.30955 1.41626
H 1.49444 9.51209 0.712257
H 2.26677 8.31877 1.51608
O 25.0226 6.07534 23.4649
H 24.7563 6.02043 24.4272
H 25.2901 5.16793 23.1408
O 23.7298 23.9805 16.0365
H 23.7461 24.1535 17.0213
H 24.6335 24.1657 15.6505
O 0.76323 23.1395 26.1937
H 1.14242 22.3051 25.7936
H 29.32 23.7983 25.4673
O 13.6742 12.388 24.0577
H 14.3823 12.1683 24.7287
H 14.004 13.1096 23.4491
O 2.25818 21.2262 24.6322
H 2.74334 20.3994 24.917
H 2.70694 21.6157 23.8279
O 22.4877 26.1275 3.51164
H 21.9372 26.0779 4.34501
H 23.1377 25.3677 3.49587
O 13.8557 18.4604 21.5957
H 14.3661 17.7058 21.1834
H 13.2955 18.1125 22.3474
O 7.06246 1.24746 11.3008
H 7.35999 29.2782 11.9257
H 7.31124 1.0009 10.3642
O 4.01429 14.136 25.2703
H 3.59592 14.7982 24.6486
H 3.35077 13.4214 25.4918
O 1.83653 6.10089 4.26204
H 0.979052 5.81122 4.68727
H 2.33424 6.69954 4.88966
O 15.5888 10.6749 12.4074
H 14.7823 10.0985 12.2754
H 15.7285 11.2435 11.5967
O 16.7997 21.9368 27.6007
H 16.3548 21.1351 27.2015
H 17.2555 21.6759 28.4516
O 27.5169 21.4987 1.2861
H 27.0074 20.711 1.63231
H 27.8429 22.0489 2.0549
O 1.02263 1.25861 20.0588
H 1.37919 29.2533 19.5125
H 0.878983 0.952382 20.9999
O 7.33188 3.72357 4.91711
H 7.8753 3.11805 4.33571
H 6.71818 4.27024 4.34744
O 2.80368 9.36909 12.4907
H 3.74843 9.68905 12.5619
H 2.52382 9.36722 11.5307
O 8.00226 6.85777 7.40351
H 8.86186 6.47669 7.06312
H 7.58125 6.21296 8.04145
O 10.3973 11.7517 26.629
H 10.3164 11.1621 27.4326
H 11.2561 12.2619 26.6751
O 17.032 4.90675 26.058
H 16.8008 5.87819 26.1115
H 16.1927 4.36322 26.0707
O 24.5841 13.0594 18.3481
H 23.6194 13.1761 18.1121
H 24.9602 12.2847 17.8398
O 15.9164 28.3948 14.2497
H 16.4464 27.8242 14.8769
H 16.0258 29.3566 14.5008
O 15.6891 15.3964 6.0986
H 15.5291 15.7577 7.01722
H 16.3142 14.6176 6.15093
O 26.6767 25.5184 9.153
H 25.9512 26.1198 9.48775
H 27.5667 25.9367 9.33458
O 19.3592 25.9913 26.6998
H 18.5653 25.457 26.9902
H 19.1131 26.5506 25.9082
O 10.5197 26.4279 10.6319
H 9.82644 25.8418 10.2125
H 10.3475 27.3803 10.3803
O 4.88441 1.68598 15.7855
H 4.17568 1.4688 15.1143
H 5.67861 2.07406 15.3179
O 8.31038 19.3087 10.6382
H 8.46304 18.7662 9.81218
H 9.19121 19.5604 11.0392
O 6.75203 19.1665 1.86741
H 6.24048 18.757 1.11205
H 6.11484 19.5961 2.50726
O 14.6833 17.4911 28.1791
H 15.6554 17.3343 28.0047
H 14.2139 16.6122 28.2639
O 28.5144 5.83553 13.1143
H 28.375 6.14011 12.1721
H 29.0412 6.52405 13.6127
O 12.4684 13.2339 26.9762
H 12.9902 13.8649 26.4021
H 12.7048 13.3837 27.9362
O 15.9229 11.8761 25.5663
H 16.3283 11.6452 26.4507
H 16.6493 12.072 24.9076
O 18.6281 4.1074 13.7139
H 19.1202 3.7508 12.9198
H 18.5401 5.10024 13.6333
O 6.29737 9.65031 3.80325
H 6.36759 8.70052 4.10815
H 5.73431 9.69471 2.97803
O 15.019 24.3599 17.4442
H 15.3522 25.2652 17.7081
H 15.113 24.2454 16.4552
O 25.6711 3.74029 19.6592
H 25.8169 3.69916 20.6477
H 26.0318 2.90999 19.2343
O 11.6025 17.7792 15.3919
H 12.2831 18.3292 15.8761
H 12.0576 17.2205 14.6985
O 22.0983 25.512 24.3581
H 22.9149 25.1078 23.9462
H 22.2279 25.5914 25.3465
O 6.70414 26.2499 6.33605
H 6.04915 25.8394 6.97045
H 6.21318 26.7951 5.65651
O 8.99888 16.7236 25.5946
H 8.88657 15.7352 25.6969
H 9.96581 16.9364 25.454
O 14.1252 4.64136 4.95531
H 14.0363 4.27289 4.02993
H 13.3116 5.17763 5.18009
O 26.4689 23.2038 10.6128
H 26.0285 23.6247 11.4058
H 26.6794 23.9085 9.93527
O 14.2049 28.2106 7.00843
H 13.3585 27.9388 7.46645
H 14.165 29.1844 6.78462
O 17.5124 3.88917 28.6407
H 17.5903 4.38186 27.774
H 17.9782 3.00742 28.566
O 1.78981 6.61299 1.41578
H 2.21408 5.88035 0.883578
H 1.73369 6.33818 2.37564
O 14.8293 3.16443 26.2268
H 15.1426 2.22508 26.0874
H 14.1642 3.40239 25.5189
O 12.3303 4.05743 8.92743
H 13.2159 3.59307 8.93872
H 11.8672 3.87089 8.061
O 4.76526 18.5054 28.4705
H 4.01984 19.1388 28.2628
H 4.61769 17.6454 27.9819
O 1.22829 27.4073 18.8718
H 29.1687 27.1896 18.3303
H 1.30968 26.7566 19.6268
O 8.30721 25.5385 9.02403
H 7.42712 25.4445 9.48943
H 8.19254 26.0999 8.20444
O 22.1253 2.35786 14.7833
H 21.7636 3.12703 14.2565
H 23.1163 2.45415 14.8762
O 28.6086 25.8291 28.9048
H 27.8593 26.0942 0.759063
H 28.4538 24.8995 28.5704
O 9.59524 17.2167 17.0762
H 9.71678 17.6205 17.9829
H 10.4385 17.3212 16.549
O 9.45875 18.6013 20.0836
H 10.3081 18.3422 19.6237
H 9.65027 18.8155 21.0414
O 12.4651 5.59611 28.647
H 13.1048 4.88353 28.935
H 12.2793 5.5017 27.6689
O 11.1823 20.2889 0.878004
H 12.0503 19.9453 1.2364
H 10.4283 19.9232 1.42366
O 12.6395 13.3149 20.3127
H 12.4017 14.2762 20.4518
H 12.2603 13.0003 19.4425
O 1.89405 9.84044 9.97084
H 1.36536 10.5882 9.56923
H 2.02956 9.12335 9.28716
O 12.5718 26.3961 8.74476
H 13.1756 25.6979 8.36023
H 11.8839 25.9594 9.32457
O 13.0052 28.3161 13.9626
H 12.6034 28.1723 14.8669
H 13.9995 28.2267 14.0216
O 16.6009 2.32672 14.1831
H 15.673 2.69478 14.124
H 17.2378 2.95529 13.7367
O 25.7835 11.092 16.5788
H 26.6681 10.7401 16.2726
H 25.1078 10.9737 15.8512
O 26.7611 11.8181 27.1109
H 26.3497 11.107 26.5408
H 27.1088 12.5528 26.5283
O 13.0675 26.376 12.1162
H 13.1475 27.1105 12.79
H 12.2852 26.5548 11.5195
O 24.0134 5.86546 19.1328
H 24.7495 5.19184 19.0665
H 23.6487 5.87015 20.0639
O 5.44329 14.2556 4.9546
H 5.66361 14.6861 5.82985
H 5.21821 13.2928 5.10409
O 17.3622 13.2006 5.58615
H 18.0785 13.4189 4.92342
H 17.7126 12.5399 6.25008
O 26.8825 13.818 19.3497
H 27.5224 13.5953 18.6141
H 25.9571 13.554 19.0777
O 14.1263 14.7616 22.6124
H 15.0534 14.7799 22.238
H 13.4831 15.1022 21.9266
O 14.5554 3.70819 28.7834
H 14.7373 3.43807 27.8379
H 15.3916 4.07382 29.1923
O 11.0319 2.33433 10.557
H 11.4875 2.2291 11.441
H 11.57 2.94416 9.97519
O 17.0159 16.296 27.6564
H 17.5571 15.5184 27.9764
H 16.7999 16.1757 26.6875
O 27.1667 4.31272 15.1382
H 27.5539 4.86359 14.3989
H 26.3753 4.78491 15.5264
O 12.3193 17.2955 23.5444
H 12.2491 17.5346 24.5128
H 12.1832 16.311 23.4335
O 13.871 15.2769 25.7337
H 13.578 14.9771 24.8258
H 13.7882 16.2713 25.7992
O 6.12238 20.4197 14.7719
H 5.62065 19.9576 14.0406
H 6.99522 19.9554 14.9222
O 21.1071 11.008 16.0899
H 21.5307 11.74 16.6235
H 20.4168 10.5461 16.6468
O 24.9775 5.62765 15.8966
H 24.7761 6.56129 15.6003
H 24.1715 5.2383 16.3425
O 27.0332 8.34736 24.0195
H 28.0096 8.1586 24.1239
H 26.5698 7.52856 23.6807
O 6.85012 15.5591 13.3464
H 7.8283 15.6022 13.5496
H 6.32821 15.7446 14.179
O 25.0222 23.1309 21.2816
H 24.4491 22.3114 21.2765
H 24.788 23.6965 22.0723
O 16.5763 22.4123 18.6978
H 15.9514 23.0627 18.2659
H 16.6522 22.6203 19.6729
O 3.52465 7.92857 5.71736
H 3.38685 8.8843 5.45736
H 4.42127 7.62214 5.39772
O 7.47184 18.7809 26.7913
H 6.84362 18.3906 27.4644
H 8.12874 18.0835 26.5048
O 17.3639 17.7057 10.058
H 16.9758 18.6075 10.2481
H 18.2952 17.6608 10.4193
O 6.90457 19.3063 19.6521
H 7.81284 18.8993 19.7489
H 6.68418 19.8291 20.4756
O 14.9641 22.7993 24.6127
H 14.874 22.1038 23.8998
H 15.5217 22.4395 25.3608
O 6.52519 7.57314 21.2565
H 6.54759 6.63505 20.9108
H 5.87288 8.11002 20.7215
O 9.08889 21.9473 22.8036
H 9.45587 21.1205 23.23
H 9.83298 22.4596 22.3748
O 28.9565 28.136 22.222
H 29.1971 28.6385 23.0523
H 1.00686 27.6436 21.8859
O 27.609 23.2855 28.1397
H 28.1891 23.0957 27.3476
H 27.5965 22.4878 28.7425
O 21.8485 4.59154 13.3298
H 21.861 5.39767 13.9214
H 22.5305 4.69846 12.6064
O 23.3258 17.3133 18.898
H 22.9901 17.8158 18.1013
H 24.0635 17.8306 19.3319
O 23.9096 28.5071 2.92069
H 23.4877 27.6085 3.04114
H 24.9043 28.4178 2.9709
O 24.8312 11.728 2.82828
H 25.4404 12.1739 3.48397
H 25.364 11.1243 2.23527
O 10.6403 19.4301 22.3952
H 11.2079 20.1332 21.9669
H 11.2266 18.7608 22.8516
O 3.26987 18.1724 24.576
H 2.42709 17.8755 24.127
H 3.43212 17.6092 25.3863
O 24.6074 6.03715 26.0525
H 25.4702 6.095 26.5547
H 24.0879 6.88141 26.1841
O 25.6168 18.6415 20.4086
H 26.1158 17.8233 20.1228
H 26.2271 19.433 20.3744
O 6.70511 20.9035 22.0856
H 7.52056 21.3975 22.3872
H 6.13084 20.6936 22.8769
O 11.0586 19.7072 10.9755
H 11.3312 20.4538 11.5824
H 11.381 19.8968 10.0481
O 6.60848 4.84419 14.6268
H 7.52904 4.87885 14.2377
H 6.01419 4.30575 14.0294
O 27.3355 16.7346 19.5835
H 26.9697 15.8052 19.6334
H 28.3185 16.6967 19.4043
O 24.1124 2.15689 8.25524
H 24.3343 3.07689 7.93216
H 23.553 2.21973 9.08175
O 3.17618 22.6934 22.5866
H 3.88917 22.7004 21.8854
H 2.27748 22.6897 22.148
O 13.5166 19.0321 16.7868
H 13.2629 19.9929 16.6751
H 14.3248 18.9666 17.372
O 13.5944 4.29531 24.0374
H 13.5745 4.5234 23.064
H 12.945 4.87555 24.5291
O 8.75017 21.1491 28.211
H 8.34303 20.3068 27.8578
H 9.62659 20.9394 28.6445
O 10.0027 28.89 9.73727
H 10.3378 1.05037 9.97034
H 9.10102 28.9645 9.31142
O 22.8658 2.00659 5.78252
H 23.655 1.47164 6.08435
H 22.518 2.54829 6.54774
O 9.15095 9.84026 25.171
H 9.53898 10.6789 25.5533
H 8.18607 9.77342 25.425
O 11.1455 23.6723 22.0927
H 11.488 23.9609 22.9869
H 10.8843 24.4773 21.5602
O 28.1455 25.4524 12.5711
H 27.4459 24.8536 12.961
H 29.0277 25.2575 12.9996
O 21.3346 16.03 20.7285
H 22.048 16.3914 20.1282
H 20.8514 15.2885 20.263
O 17.7736 18.1709 19.9686
H 18.2215 18.8739 20.521
H 17.9372 18.3543 18.9992
O 12.9292 28.7925 10.0272
H 13.1035 27.9479 9.52099
H 11.943 28.944 10.0933
O 24.4625 15.9012 1.49967
H 23.571 16.1632 1.86928
H 24.4033 14.9842 1.10523
O 1.86866 3.51807 18.6553
H 1.46989 3.02535 19.4287
H 1.35972 3.29952 17.8227
O 25.0846 28.2567 8.89381
H 25.7078 28.4036 9.66199
H 24.7786 29.1401 8.53912
O 26.8048 1.50842 18.597
H 26.5664 29.2907 18.6404
H 27.5617 1.63735 17.9562
O 15.0475 20.1229 26.7822
H 14.1028 20.4052 26.9489
H 15.1559 19.1597 27.0281
O 11.1355 3.55561 6.48207
H 11.0547 4.55081 6.42694
H 11.5822 3.21122 5.65629
O 28.1875 13.4663 25.5627
H 27.8036 13.9886 24.8012
H 29.0931 13.1257 25.31
O 20.193 26.6279 22.6517
H 20.8236 26.1787 23.2846
H 20.6189 27.4568 22.289
O 22.3271 10.7848 19.6885
H 23.1987 10.4702 19.3125
H 21.7811 9.99556 19.9696
O 25.8212 3.23016 22.6084
H 26.3318 2.455 22.2363
H 24.9955 2.89756 23.064
O 17.9973 11.327 9.94659
H 17.2112 11.8756 10.2313
H 17.9581 10.4324 10.3917
O 14.6186 25.1004 14.5382
H 14.2115 25.5284 13.7314
H 15.3904 25.652 14.8545
O 23.0179 22.695 27.552
H 22.3874 21.9208 27.6067
H 22.5272 23.5019 27.2231
O 14.8488 2.08438 6.84447
H 14.3471 2.77464 6.32311
H 14.6725 2.21064 7.82067
O 22.2711 19.9228 24.2664
H 21.4536 19.8061 24.8302
H 22.9978 20.3369 24.8145
O 21.4288 17.9108 4.76168
H 20.9078 18.7142 4.47324
H 21.4129 17.8438 5.75931
O 23.5406 15.5281 8.81985
H 23.4342 14.6375 9.26197
H 22.7117 15.7456 8.30449
O 14.9826 20.7843 22.6591
H 15.8966 20.9233 22.2779
H 14.5663 19.9771 22.2407
O 4.14769 20.0736 16.6519
H 4.68152 19.7512 15.8702
H 3.33355 19.5026 16.7578
O 5.46587 3.22732 12.8344
H 4.88875 3.78183 12.2348
H 6.16334 2.76246 12.289
O 0.790274 11.2452 13.4807
H 0.839427 12.1331 13.0234
H 1.51362 10.6497 13.1311
O 24.6448 13.4653 29.1265
H 24.6093 12.8187 1.13593
H 24.8192 12.969 28.276
O 26.8631 0.946476 21.6157
H 27.4773 29.0014 21.9846
H 26.8062 0.848831 20.6221
O 6.24077 17.5303 11.3191
H 6.54314 16.7716 11.8961
H 6.94918 18.2358 11.2979
O 1.54419 7.54245 14.0559
H 1.92036 8.25666 13.4657
H 2.17345 7.37078 14.8139
O 26.818 27.8053 11.7491
H 27.3418 27.0475 12.1381
H 27.3991 28.6171 11.6913
O 24.2824 23.9524 24.0228
H 25.0668 24.2069 24.5885
H 23.9031 23.0866 24.3492
O 5.51894 6.7113 29.3451
H 4.88732 6.03175 28.972
H 6.41326 6.60987 28.9093
O 19.206 24.8395 15.4291
H 20.0815 25.1369 15.0481
H 19.257 23.8686 15.6632
O 16.0956 7.96943 26.8518
H 15.3686 8.65592 26.865
H 16.0248 7.39316 27.666
O 19.1905 27.6736 5.7973
H 18.5684 28.352 6.18822
H 19.6759 28.075 5.02054
O 16.3173 6.75972 1.01762
H 16.7505 7.61377 1.30567
H 16.334 6.10586 1.77405
O 27.2123 23.121 19.4969
H 26.983 22.4363 18.8051
H 26.4491 23.2178 20.1358
O 6.85361 20.0235 6.42448
H 6.05984 19.9219 7.02417
H 6.58159 20.5022 5.58971
O 20.6686 28.7982 13.496
H 20.9766 0.700301 14.1864
H 19.743 29.0355 13.2011
O 1.51409 16.2934 19.9313
H 1.35365 16.5527 20.8837
H 2.28937 15.6636 19.8834
O 18.9487 14.5134 28.3684
H 19.5064 14.3683 27.5511
H 19.4184 15.1456 28.9845
O 22.3216 23.8346 13.6764
H 22.6713 23.8448 14.6131
H 21.8033 24.6724 13.505
O 14.3641 2.42112 9.46129
H 13.7601 1.68524 9.76735
H 14.8733 2.78119 10.243
C 21.0823 17.0963 11.5333
O 19.8727 17.7787 11.1927
H 19.9497 18.6364 11.5819
C 3.21546 18.8495 12.8749
O 4.60527 19.0746 12.6245
H 5.01314 18.3302 12.2091
C 16.851 25.7227 7.0211
O 15.6543 26.0246 7.74348
H 15.2289 26.7952 7.39958
C 9.05759 29.1068 4.31232
O 8.99685 1.57638 3.57218
H 9.81958 2.03895 3.52557
C 8.34655 28.3205 24.5523
O 8.18769 0.934388 24.943
H 7.48902 0.972126 25.5782
C 22.1632 1.27035 11.0911
O 22.6615 2.49758 10.5521
H 21.9494 3.11603 10.493
C 26.0952 26.8035 19.6182
O 26.2876 27.5854 18.4364
H 25.5832 27.3402 17.8563
C 15.8958 9.61515 21.6762
O 16.8441 10.6854 21.6924
H 17.297 10.7525 22.5191
C 13.4665 8.39064 1.58115
O 12.2182 7.72077 1.38665
H 12.4504 7.01529 0.802349
C 8.0016 26.2808 29.2533
O 9.08993 25.9695 28.3795
H 9.04849 25.068 28.0991
C 29.0195 17.0069 9.20898
O 29.2559 17.1705 10.6098
H 0.926308 16.3908 10.9356
C 28.2108 20.8364 22.2204
O 28.5659 19.5519 21.7018
H 29.2571 19.6926 21.0729
C 23.3639 11.4751 13.7937
O 23.6377 10.6389 14.921
H 22.8376 10.6261 15.4235
C 3.23937 19.2232 21.1006
O 2.24826 20.0054 20.4291
H 2.62243 20.7165 19.9318
C 22.5799 5.45564 3.05869
O 21.4956 4.53845 2.89127
H 21.8544 3.66802 2.80964
C 25.5049 4.49449 12.2377
O 24.201 4.52651 11.6514
H 24.0653 3.61261 11.4529
C 1.14294 25.8691 5.56012
O 2.48765 25.4072 5.4072
H 2.87071 25.8638 4.67378
C 1.07633 1.8695 15.7584
O 28.8819 2.5864 16.5548
H 28.382 3.10636 15.9443
C 1.09972 21.7488 7.24725
O 28.7809 22.2768 6.46086
H 28.1022 22.6581 6.99661
C 17.5012 3.20443 19.6018
O 16.5886 2.12445 19.388
H 16.53 2.09167 18.4454
C 5.62641 9.53658 8.4515
O 7.04091 9.3363 8.51464
H 7.37149 8.53711 8.13382
C 24.8227 17.0441 5.94203
O 25.7259 16.7097 6.99899
H 25.1593 16.1831 7.54188
C 3.40467 3.43829 6.96988
O 4.12293 2.24847 7.3065
H 4.45038 2.39243 8.18119
C 18.8588 10.2049 7.13976
O 18.3535 11.5362 7.26999
H 18.3323 11.7568 8.18864
C 27.0419 2.03284 4.46205
O 28.4485 2.19222 4.66453
H 28.5902 3.09201 4.91614
C 25.7231 9.23371 29.1988
O 26.0852 10.5831 0.751118
H 26.5683 10.9913 28.8015
C 10.696 4.16155 2.80041
O 11.3088 3.0247 3.41434
H 12.1663 2.88567 3.04239
C 24.119 15.0064 15.3126
O 23.3784 15.272 14.1185
H 23.9641 15.1961 13.3808
C 12.2387 11.739 3.24829
O 11.9313 13.1244 3.42449
H 12.5101 13.5002 4.07006
C 3.09793 2.85709 3.12433
O 3.37705 4.24015 2.89169
H 2.87889 4.77184 3.49349
C 1.31348 28.4463 3.12797
O 1.65617 29.0897 4.35821
H 0.951228 0.944847 4.52221
C 23.6044 12.3384 23.5301
O 23.0279 12.3636 24.8385
H 23.1442 13.2507 25.1426
C 14.1982 0.693996 23.8582
O 15.0582 29.313 24.9929
H 14.7485 28.6526 25.5937
C 3.27432 10.8648 15.8118
O 2.50949 12.069 15.712
H 1.62543 11.7398 15.6566
C 4.18867 13.0856 1.35021
O 3.76629 12.1021 29.1545
H 3.97435 11.2755 0.810018
C 11.2005 1.5661 26.1873
O 10.3544 2.49424 25.5036
H 9.65428 1.94111 25.1922
C 1.54526 10.6457 20.0715
O 2.20518 9.88501 19.0563
H 1.6114 9.55299 18.4004
C 14.0794 19.1651 6.07036
O 12.9937 18.2522 5.88922
H 12.3147 18.3998 6.5297
C 1.12775 22.8181 2.99592
O 28.5681 22.7118 3.55427
H 28.6805 22.2892 4.39203
C 25.6079 7.39035 4.1209
O 26.8715 6.74934 3.92749
H 27.2975 7.02281 3.12952
C 18.874 11.5817 13.6051
O 20.0883 10.8468 13.4307
H 20.5195 10.8803 14.2709
C 9.13562 19.8912 14.3647
O 8.3454 18.8138 14.8743
H 8.69374 18.4247 15.6619
C 14.7439 16.067 16.614
O 15.6532 16.8235 15.8105
H 15.3604 16.642 14.9306
C 3.63255 16.5146 9.29242
O 4.87683 17.1266 8.94284
H 5.36015 17.4349 9.69408
C 2.46954 14.1266 22.4046
O 1.93159 14.5995 23.6422
H 0.993713 14.6864 23.5657
C 23.9291 15.7834 26.0057
O 22.7555 15.2717 25.3686
H 22.5813 15.9255 24.7089
C 3.02093 17.8789 2.29245
O 3.24719 17.006 3.40228
H 4.17593 16.9033 3.54343
C 1.68253 4.05605 23.4791
O 1.0458 5.05032 24.2858
H 29.1287 4.62986 24.8034
C 6.71925 17.2124 23.3486
O 8.09005 17.5537 23.1265
H 8.44845 17.5385 24.0008
C 17.0382 5.24151 16.6473
O 18.05 4.29201 16.3016
H 18.3901 4.43565 15.4317
C 19.6053 25.762 12.3698
O 20.7031 26.0645 13.2348
H 20.7003 26.9985 13.3787
C 5.22658 28.3964 3.58795
O 4.98273 27.5682 4.72794
H 4.09701 27.7126 5.02406
C 15.997 17.8494 24.3665
O 16.4071 16.6601 25.0463
H 15.7906 16.0136 24.7381
C 13.7223 9.79127 9.64747
O 13.2868 9.62388 10.9992
H 12.3464 9.71489 11.0192
C 1.65238 8.08502 22.8237
O 0.800699 7.62019 23.8742
H 0.98937 6.69726 23.9491
C 15.3042 24.6108 28.6428
O 16.5483 24.5653 27.9392
H 16.54 23.6619 27.6618
C 21.8607 7.93983 17.9562
O 22.3036 6.74452 17.3081
H 22.9135 6.39746 17.941
C 22.5792 2.63493 17.9954
O 21.8586 1.65641 17.2417
H 21.8778 1.93978 16.3404
C 15.1088 27.8689 28.1209
O 14.0952 27.8681 27.1122
H 13.3109 27.6772 27.6034
C 4.21925 29.2014 19.1635
O 3.74348 28.1371 19.9918
H 2.90981 27.8773 19.6305
C 22.8458 24.3146 9.69159
O 22.9125 22.936 9.31784
H 23.0205 23.0239 8.38315
C 2.36312 16.1206 27.5303
O 3.6272 16.3276 26.8946
H 3.86446 15.4945 26.5168
C 4.45464 24.9272 2.82019
O 3.07591 25.1049 2.48491
H 3.01367 25.5468 1.65191
C 6.73159 15.5637 29.145
O 7.92619 15.8551 28.4151
H 7.91273 15.292 27.6563
C 1.24977 18.3566 17.1996
O 2.45305 17.8437 17.7774
H 2.17301 17.2643 18.4695
C 22.4082 28.4405 20.8435
O 21.7071 28.6994 22.0627
H 22.1969 29.343 22.5515
C 15.3021 25.7032 22.7809
O 16.0291 25.1319 23.8718
H 15.5768 24.3223 24.0536
C 12.2665 23.0193 16.351
O 12.0998 21.6446 16.7076
H 11.2089 21.6108 17.0211
C 19.8327 21.4183 17.1176
O 18.9194 22.516 17.0405
H 18.2302 22.3653 17.6693
C 7.26895 27.7198 17.2619
O 7.47699 28.3091 18.5482
H 7.05196 29.1526 18.5185
C 6.47276 26.3605 21.3042
O 7.74284 26.8343 20.8489
H 7.59017 27.3528 20.0737
C 25.4467 20.5292 26.1504
O 24.148 21.0736 25.9018
H 23.8724 21.5718 26.656
C 1.59225 27.8316 25.3313
O 1.09986 28.9032 24.5225
H 1.80667 29.124 23.9354
C 19.1935 24.8187 19.833
O 18.9276 24.6654 21.2297
H 19.4653 25.2682 21.7203
C 19.9707 21.5102 21.2872
O 18.6302 21.0131 21.3198
H 18.1021 21.794 21.386
C 11.767 26.7254 16.5859
O 11.7736 28.1288 16.3118
H 11.1297 28.5613 16.8515
C 11.4736 13.1989 17.0354
O 11.8491 12.2629 18.0492
H 11.0659 11.7349 18.0789
C 25.4221 8.94474 19.4836
O 24.905 10.1264 18.8663
H 25.3512 10.2583 18.0438
C 18.5251 9.35199 18.6232
O 19.4056 10.248 17.94
H 19.319 11.0917 18.3568
C 28.8298 17.6187 24.6841
O 0.877646 17.9304 23.5408
H 29.1603 18.4213 22.8841
C 21.8101 10.3333 4.20433
O 22.8369 9.89059 3.31292
H 23.4808 10.5696 3.18154
C 5.41397 9.93057 18.7336
O 4.79568 8.90452 19.5145
H 3.91713 9.24473 19.4408
C 24.6631 19.2016 13.0528
O 24.017 20.277 13.7392
H 23.4548 20.8191 13.2071
C 19.5141 23.1379 25.1199
O 19.092 21.9994 25.8752
H 18.3779 22.164 26.4719
C 9.02317 14.6776 21.833
O 9.80128 15.8519 21.5874
H 9.30477 16.6078 21.8616
C 26.0905 14.9353 11.6337
O 24.7826 15.4876 11.8048
H 24.4419 15.7231 10.9554
C 14.9933 17.7567 12.7609
O 14.874 16.4036 13.2079
H 15.3763 15.9218 12.5687
C 2.8506 15.4124 14.9787
O 2.93199 14.2271 14.1828
H 2.68032 13.4802 14.7041
C 2.54619 14.5447 6.43304
O 1.41923 14.0413 7.15518
H 29.3763 14.4271 6.82125
C 25.6802 8.09693 14.0033
O 24.5677 8.05071 14.9005
H 24.1658 8.90596 14.8977
C 9.03005 10.2046 17.5867
O 9.6723 10.9034 18.6563
H 9.1354 10.599 19.3718
C 8.55088 23.6403 25.8738
O 8.3328 23.7075 27.2855
H 8.5796 22.8949 27.6999
C 8.36514 25.0725 15.0993
O 7.22603 25.485 14.3396
H 6.92678 24.6909 13.9238
C 4.92391 9.02468 26.9659
O 6.25651 9.18551 26.4727
H 6.86578 9.41685 27.157
C 9.22879 6.39687 29.0467
O 7.87674 6.22447 28.6141
H 7.89891 6.00784 27.6945
C 9.68883 9.00824 10.4913
O 10.6439 10.0083 10.8555
H 10.5157 10.7794 10.3245
C 18.6278 23.0211 9.85417
O 17.5192 22.4469 10.5514
H 17.2045 23.1979 11.0311
C 21.7831 18.4621 15.4619
O 22.5061 18.8321 16.6389
H 22.9144 19.6815 16.5687
C 18.6099 28.2641 20.3302
O 17.2154 28.2583 20.0136
H 16.9733 29.1549 19.8389
C 4.17832 24.7336 25.7194
O 3.10777 25.0603 26.6094
H 2.44157 24.3945 26.5319
C 10.1831 13.4329 9.00296
O 9.99417 12.0402 9.26655
H 9.4802 11.7904 8.51389
C 15.0226 13.1369 9.59119
O 15.9809 12.8489 10.6128
H 16.2206 13.7023 10.9403
C 12.4274 25.2965 25.218
O 12.498 24.1574 24.3565
H 13.337 23.7906 24.5903
C 2.22033 13.555 11.0735
O 1.36519 14.1389 12.0597
H 1.94938 14.3063 12.7834
C 28.7063 8.92547 27.4461
O 28.7418 9.7442 28.618
H 28.9295 10.5841 28.2277
C 9.35282 22.4338 18.6046
O 9.05008 21.6353 17.4577
H 8.11134 21.5782 17.3652
C 27.7114 17.5791 29.1674
O 26.9118 17.5043 1.59815
H 26.315 16.7758 1.52022
C 28.9099 29.0943 28.2791
O 28.0389 1.01047 29.1951
H 27.651 29.0671 0.95079
C 4.39071 6.85383 16.187
O 2.96768 6.72493 16.2444
H 2.68631 6.03154 16.8215
C 21.2586 8.32984 11.3321
O 21.6357 8.93521 12.5716
H 21.0042 9.59594 12.8116
C 18.9258 16.4557 23.3142
O 19.0897 15.0436 23.1596
H 19.8343 15.0379 22.5777
C 21.2748 27.1722 0.803625
O 22.491 26.4231 0.87047
H 22.7294 26.2811 1.77383
C 3.01578 6.30817 19.9228
O 3.48056 4.95725 19.9851
H 2.92893 4.38379 19.4753
C 13.2104 21.4967 19.9812
O 12.1024 21.3609 20.8749
H 11.9432 22.1728 21.3314
C 14.8276 13.9433 1.38322
O 13.4416 14.0494 1.04744
H 12.8854 13.9335 1.80255
C 17.5153 3.72385 3.90898
O 16.6628 4.07755 2.81673
H 17.098 3.78278 2.03141
C 9.17897 5.77006 21.9487
O 9.07316 4.55781 21.1976
H 8.17082 4.39795 20.9668
C 13.412 27.6584 3.8822
O 13.1665 26.6622 2.88612
H 12.9407 25.8481 3.30957
C 17.5721 19.3186 6.24204
O 17.7032 19.1279 4.83089
H 17.0989 18.4282 4.63568
C 5.38894 28.0453 27.3468
O 6.00478 29.2357 26.8482
H 6.592 29.4041 27.5691
C 2.57218 6.62414 9.03711
O 2.83469 7.85342 8.35532
H 3.04781 7.6867 7.44988
C 16.5477 0.71472 2.36068
O 17.919 1.04246 2.12211
H 18.0974 1.00318 1.19493
C 3.80309 13.9817 18.1989
O 3.84212 14.9124 19.2839
H 4.55997 15.4827 19.055
C 24.7876 1.23496 28.4389
O 23.8295 1.14309 27.3813
H 22.9507 1.239 27.7154
C 5.06775 25.6292 11.0102
O 5.80067 25.8221 9.79749
H 5.23157 25.8249 9.04308
C 28.1391 6.03358 20.0236
O 28.2396 6.76531 18.7991
H 27.5221 6.35925 18.3372
C 3.44777 19.2277 6.89629
O 4.6326 19.3212 7.69147
H 4.65962 18.5605 8.25143
C 21.6863 19.1797 8.75812
O 21.0574 18.648 7.5891
H 20.8405 19.3824 7.03539
C 10.9247 27.396 20.481
O 10.544 26.1351 21.0379
H 9.63493 25.9166 20.9003
C 5.28037 20.5495 25.3388
O 4.98318 20.2522 23.972
H 4.4844 19.4572 24.0821
C 27.6826 3.87914 8.9077
O 27.0537 4.76142 7.97443
H 26.1554 4.86223 8.24998
C 16.7152 22.3752 4.37868
O 17.3489 21.4685 3.47239
H 17.6805 20.7244 3.95126
C 5.12183 6.30679 23.7424
O 6.1821 7.26396 23.8099
H 6.38926 7.50671 22.9204
C 24.9294 15.8157 21.8426
O 25.7836 16.8313 22.3752
H 25.6577 17.543 21.7664
C 27.9366 14.1449 15.9976
O 28.1865 13.2815 17.1097
H 28.575 12.4964 16.7551
C 27.863 21.4156 13.1934
O 27.9626 21.4976 11.7692
H 27.5383 22.3194 11.5749
C 11.504 28.2278 29.3945
O 11.7502 27.3401 28.3007
H 11.4225 26.5032 28.5926
C 11.5236 9.72967 6.76856
O 12.1889 8.46577 6.83724
H 13.0373 8.55758 6.43122
C 2.61101 26.1494 14.6977
O 1.9186 24.9599 14.3098
H 2.33718 24.611 13.5377
C 4.37946 1.13104 23.2435
O 3.21129 29.3867 22.5851
H 3.49383 29.0344 21.755
C 10.2799 1.7242 18.1487
O 9.84624 29.1232 17.9909
H 8.95669 28.971 18.2711
C 13.2976 9.5616 25.5373
O 13.188 10.0981 26.8583
H 13.1559 11.0324 26.7202
C 25.187 20.2734 8.37382
O 25.7693 21.5706 8.52507
H 25.9584 21.802 9.42158
C 9.24799 13.4538 12.5304
O 9.25087 14.0843 13.8139
H 8.84959 13.4971 14.436
C 21.9337 7.38926 7.44004
O 21.7637 6.02093 7.81906
H 21.5246 5.53688 7.04346
C 9.59292 18.2283 3.67589
O 9.29233 19.329 2.8139
H 8.39002 19.2793 2.53753
C 4.26153 22.291 9.63018
O 2.99922 22.2413 10.3002
H 2.59365 21.3989 10.1623
C 10.4692 6.6766 18.609
O 9.8346 6.06611 17.4822
H 10.4689 6.00807 16.7841
C 28.8634 13.2706 0.923307
O 27.5085 13.5809 1.25918
H 27.0272 13.2774 29.2573
C 1.99445 3.80868 27.6762
O 2.8212 4.85417 28.1942
H 3.46392 4.93648 27.5063
C 6.8061 29.0766 7.93649
O 7.76237 1.06198 8.70194
H 7.94506 1.85351 8.2191
C 9.95987 3.56143 13.5639
O 9.33252 4.79421 13.9266
H 9.99234 5.458 13.7961
C 13.5736 2.69224 16.2364
O 13.6072 3.39119 14.9893
H 13.1843 4.22932 15.0977
C 11.0072 9.74965 13.8809
O 12.3532 9.26818 13.9206
H 12.8643 9.86429 14.4464
C 22.6548 25.0088 19.2114
O 23.724 24.118 18.8826
H 24.2367 23.9301 19.6539
C 15.6642 21.1502 13.9597
O 14.4242 21.86 13.9008
H 14.6982 22.7252 14.1642
C 17.6753 12.7884 17.2281
O 17.6337 12.8841 18.6543
H 16.8695 13.4182 18.809
C 14.0336 5.04128 20.6506
O 12.7777 5.38611 21.2412
H 12.1492 4.79417 20.857
C 22.361 9.29267 26.8107
O 23.2457 8.44012 26.079
H 22.946 8.36641 25.1858
C 3.0706 25.6196 21.6396
O 1.71376 25.8406 21.2458
H 1.47959 24.9987 20.8862
C 11.4637 23.1384 12.7427
O 11.9762 21.84 12.4325
H 12.7024 21.736 13.0282
C 17.1897 7.36592 9.35231
O 16.0956 7.27792 10.2689
H 15.3657 6.90455 9.79907
C 9.87657 21.2969 5.6769
O 10.0526 21.6503 7.05133
H 10.3319 22.549 7.13681
C 11.6536 21.2468 26.1095
O 12.3933 20.5208 27.0947
H 11.7975 20.4317 27.8228
C 19.6271 11.757 23.8998
O 18.4063 11.0125 23.9207
H 18.4308 10.2948 24.5349
C 14.8402 10.1082 17.2448
O 13.5187 9.65692 17.5532
H 12.9879 10.4387 17.5637
C 19.0756 7.70126 25.0873
O 18.2559 8.83451 25.3852
H 17.5846 8.52584 25.9743
C 19.764 21.4707 13.2111
O 20.1306 20.4824 12.2448
H 20.9382 20.7568 11.8378
C 4.99469 24.7509 17.5727
O 5.99019 24.0471 18.32
H 6.16946 23.1875 17.9706
C 9.24183 28.0154 13.0538
O 7.84313 27.754 12.9116
H 7.64908 26.8834 13.2237
C 19.5894 3.90259 10.5431
O 20.8325 4.39451 10.0358
H 20.6711 4.93862 9.28022
C 26.956 11.1342 22.1308
O 27.1329 12.4993 21.7435
H 27.0374 12.5659 20.8057
C 8.59046 4.95401 10.4522
O 7.80448 4.92873 9.25781
H 8.1471 4.2618 8.68261
C 21.1436 21.5143 4.94752
O 21.6978 20.8986 6.1131
H 22.1432 21.607 6.55219
C 24.0406 23.3262 2.29898
O 24.1419 24.0747 3.51321
H 24.9915 23.8889 3.88288
C 28.0147 12.2444 8.64445
O 29.3835 11.833 8.69047
H 0.993986 12.5217 8.15479
C 8.05752 14.5157 18.2165
O 8.55736 14.8028 16.9078
H 8.93338 15.6689 16.9468
C 23.2963 13.713 5.66818
O 23.8563 14.4754 4.59581
H 24.6997 14.1065 4.38221
C 18.1602 7.83383 13.2939
O 18.9469 6.64151 13.3596
H 19.711 6.9334 13.8328
C 1.53983 20.6905 28.2883
O 2.93036 20.4685 28.0392
H 3.49777 21.1587 28.347
C 4.71817 21.467 3.89435
O 6.08559 21.1672 4.18619
H 6.6432 21.7906 3.74635
C 19.6098 17.5224 1.37399
O 20.4623 16.4041 1.11388
H 21.0374 16.3828 1.86343
C 28.8714 18.126 4.80733
O 29.3586 16.7841 4.72327
H 1.49291 16.7853 4.39685
C 9.66221 8.45342 3.26353
O 10.7292 7.5578 3.58648
H 11.3573 7.75947 2.9098
C 25.1841 10.4507 5.8969
O 26.0179 11.5132 6.36693
H 26.1593 12.1195 5.65597
C 17.2245 10.6926 2.26664
O 16.7536 9.69478 1.35697
H 16.7055 10.1375 29.276
C 1.66356 11.2016 4.62686
O 2.54237 10.2795 3.97702
H 2.10307 9.90535 3.22866
C 11.0953 16.3244 1.04254
O 10.6354 16.8533 28.5486
H 9.77779 16.4626 28.6192
C 14.9847 20.3471 10.4955
O 16.3797 20.0346 10.459
H 16.8082 20.8616 10.619
C 9.98009 26.0203 5.48361
O 8.92737 25.0574 5.58079
H 8.1384 25.4621 5.9075
C 12.3686 14.8949 6.43981
O 13.2633 14.1754 5.58737
H 14.1162 14.5675 5.6957
C 23.7923 11.5759 9.19709
O 23.0446 12.7923 9.27665
H 22.17 12.5509 9.54077
C 22.123 27.2239 7.4866
O 21.4089 26.5714 6.43342
H 20.5625 26.9703 6.30131
C 26.1948 27.0616 5.28231
O 26.6316 26.3181 4.14155
H 26.4746 25.3927 4.25167
C 15.3336 4.54894 12.081
O 15.2812 3.15101 11.7844
H 14.3824 2.92889 11.9738
C 21.0345 3.21081 21.039
O 22.2154 3.64489 21.7186
H 22.3709 2.81301 22.1391
C 18.7026 11.306 27.5178
O 17.4572 11.7268 28.0806
H 17.6232 12.6151 28.357
C 17.6503 15.0219 12.4877
O 16.7567 15.1784 11.3823
H 17.1723 15.8586 10.8746
C 12.3897 16.5281 9.95857
O 13.1085 17.678 9.50468
H 12.5325 18.269 9.0443
C 19.9232 7.98189 21.698
O 21.128 8.50746 21.1348
H 21.7777 7.84114 21.2991
C 8.79922 22.7088 2.59086
O 7.84017 23.0822 3.5837
H 8.30558 23.6459 4.1826
C 5.83934 22.4363 29.1415
O 4.41701 22.4474 28.9939
H 4.19019 23.3428 29.1935
C 5.88111 3.64476 26.8586
O 5.18942 4.88621 26.6997
H 5.7049 5.4278 26.1218
C 13.3274 6.6929 15.8492
O 12.3379 5.79625 15.3375
H 11.9789 6.21345 14.5693
C 15.8141 8.47432 5.43294
O 14.6919 9.01736 6.13353
H 14.888 9.93714 6.04078
C 4.75168 10.7651 23.2868
O 3.94253 9.83502 24.0115
H 4.45478 9.07511 24.242
C 22.1674 3.62614 26.2463
O 21.6729 2.68108 25.2938
H 20.7385 2.82154 25.284
C 28.7431 29.391 7.8528
O 28.6365 28.9839 9.21947
H 28.7783 28.0539 9.30918
C 17.5215 29.1573 8.60524
O 17.5621 0.799005 7.23126
H 16.6559 0.780317 6.96363
C 3.47124 29.2527 10.1526
O 4.49288 1.44662 9.82796
H 5.13179 1.37875 10.5209
C 12.7749 22.8933 3.24252
O 12.8951 24.1345 3.94248
H 13.3606 24.0395 4.75937
C 11.0544 1.99754 22.1958
O 11.0259 2.85518 21.0519
H 10.2418 3.37082 20.9407
C 7.23432 22.7046 12.1339
O 6.68343 23.0252 13.4139
H 6.32352 22.271 13.8552
C 28.8939 23.1852 16.6244
O 28.5664 24.0543 15.5371
H 29.3924 24.4638 15.3298
C 1.24388 25.4166 9.45494
O 29.1386 26.3456 10.1228
H 28.9117 25.9397 10.9455
C 18.1166 14.6017 2.86156
O 18.9645 13.6338 3.48537
H 19.745 13.5754 2.95578
C 6.28067 13.8966 8.37386
O 6.18144 15.0634 7.5531
H 5.87704 15.7731 8.09773
C 13.966 23.0693 7.45716
O 14.1686 24.0398 6.42672
H 14.6862 24.7219 6.82666
C 8.51541 14.573 3.42698
O 7.99034 15.0544 4.66693
H 7.16454 14.6047 4.76121
C 14.8825 27.3969 18.1812
O 16.1799 26.7957 18.1828
H 16.6428 27.1654 18.9191
C 14.9704 16.9304 3.17663
O 16.1354 17.0697 3.99403
H 16.0263 16.4607 4.70838
C 8.13786 11.4869 5.73113
O 8.39246 11.3185 7.12817
H 7.85694 10.645 7.51887
C 27.2497 2.58401 25.2672
O 27.847 3.74779 25.8448
H 27.5629 3.81063 26.7439
C 7.57242 13.4993 25.5244
O 8.64372 14.0224 26.3141
H 9.09656 13.2325 26.5672
C 14.6372 20.4437 1.48907
O 13.677 19.3841 1.50356
H 14.006 18.6945 0.947438
C 14.2473 13.0872 14.438
O 13.8119 11.7415 14.2272
H 14.4746 11.416 13.6373
C 21.6929 12.517 0.953946
O 21.1227 13.3939 1.929
H 21.7449 14.0925 2.06277
C 20.2074 14.8436 15.2756
O 20.6147 14.8981 13.9059
H 21.5186 15.1723 13.8755
C 8.49878 2.03413 29.025
O 8.22681 29.4171 28.7162
H 8.97444 28.9736 28.3456
C 19.3341 15.2549 7.94902
O 20.6437 15.8275 7.90393
H 20.4872 16.7351 7.69207
C 1.93366 3.77385 11.4037
O 29.3467 3.54998 11.8516
H 29.0005 4.33338 12.251
C 17.9882 18.8431 16.2809
O 17.7075 17.7496 17.1585
H 16.8619 17.4467 16.8649
C 22.5747 19.3336 28.3109
O 21.701 20.3609 27.8352
H 21.3493 20.0376 27.0199
C 25.2627 27.7057 24.8685
O 24.921 29.0674 25.1405
H 24.8375 29.0988 26.0813
C 27.9348 8.29161 7.49739
O 28.3172 7.18373 8.31673
H 27.9964 6.36465 7.97143
C 25.3899 28.4483 14.9733
O 24.9274 27.5534 15.9883
H 24.0139 27.7284 16.1555
C 24.8296 19.6194 3.7091
O 25.8162 19.6273 2.67397
H 26.0839 18.777 2.36018
C 20.1639 1.50027 28.3521
O 18.7507 1.34488 28.1984
H 18.5011 1.18134 27.3017
C 21.352 27.3238 16.394
O 22.4779 27.6815 17.1997
H 22.4169 28.6199 17.2937
C 6.17525 10.3188 12.7142
O 4.91221 10.9893 12.7086
H 5.13414 11.901 12.8207
C 27.7056 8.54561 11.2788
O 27.9464 7.20034 10.8579
H 28.073 7.16162 9.9222
C 26.4213 17.8292 16.1809
O 26.5112 18.7106 17.3034
H 27.0849 18.3489 17.9615
C 27.7063 24.4265 23.3721
O 29.0324 24.5951 23.8801
H 0.768404 24.6881 23.0766
C 18.2186 0.863934 16.7209
O 16.9947 1.6016 16.7719
H 16.9862 2.08059 15.9574
C 7.76909 10.7179 29.1011
O 8.14538 10.0134 27.915
H 9.03238 9.68883 27.9455
C 8.71163 17.3588 7.47688
O 8.69543 18.7087 7.94856
H 8.41474 19.2019 7.19291
C 19.4623 21.9098 0.866603
O 18.1828 21.2737 0.921121
H 17.8175 21.399 1.7836
C 19.2713 18.1893 26.3311
O 20.0588 19.2236 25.7354
H 19.5883 20.0143 25.951
C 26.8384 4.10735 0.762615
O 27.5443 3.39993 28.4923
H 27.796 2.55578 28.8345
C 11.945 6.17854 11.7611
O 11.3927 6.79159 12.929
H 11.6206 7.70777 12.8876
